Zn96 H18 O96                            
    1.000000000000000     
    12.9159907272337371    0.0000000000000000    0.0000000000000008
    -6.4575301003323453   11.1858448318051593    0.0000000000000008
     0.0000000000000000    0.0000000000000000   41.8715658066988325
   Zn   O    H    O    H 
    96    95    16     1     2
Selective dynamics
Direct
  0.0829053608325732  0.1662623292465052  0.4124691859278400   T   T   T
  0.0826944427791989  0.4154413948822677  0.4125253606694049   T   T   T
  0.0834664525636789  0.6667862197628530  0.4125590951520092   T   T   T
  0.0825004597097570  0.9175833268280588  0.4124433918384823   T   T   T
  0.3319775687198976  0.1651087973378164  0.4131037820541052   T   T   T
  0.3317563323442084  0.4173923663908720  0.4130931922890637   T   T   T
  0.3331780345940096  0.6665154151441877  0.4125788629125521   T   T   T
  0.3329739278668336  0.9163043326309349  0.4126818445277853   T   T   T
  0.5828162335372953  0.1653305299081312  0.4131317836364607   T   T   T
  0.5831751273628578  0.4165253536172484  0.4136054707684663   T   T   T
  0.5812456812391873  0.6690888530164603  0.4134782029484109   T   T   T
  0.5847478533543436  0.9177922512146909  0.4123558033510724   T   T   T
  0.8326471955925705  0.1663839901101933  0.4124013809320968   T   T   T
  0.8355812071291896  0.4178517596949137  0.4131059574187654   T   T   T
  0.8374937077827987  0.6690151856146854  0.4134566465295324   T   T   T
  0.8327583227369210  0.9163601905059822  0.4123507878716340   T   T   T
  0.1667205144300451  0.0826083988730237  0.3466305293263244   T   T   T
  0.1653140262604515  0.3333004576614071  0.3469227218034406   T   T   T
  0.1666506867962617  0.5834825795931380  0.3478203352502833   T   T   T
  0.1664491152622252  0.8333859789951293  0.3478849641218052   T   T   T
  0.4153770297093985  0.0812388448630999  0.3484615784410194   T   T   T
  0.3928382691714216  0.3226959537239624  0.3511616785655117   T   T   T
  0.4161112533894022  0.5835517475886002  0.3475373855242963   T   T   T
  0.4164068480153568  0.8331761120563800  0.3479820645945497   T   T   T
  0.6644464605503553  0.0833437888402344  0.3463223129328600   T   T   T
  0.6807635801213877  0.3236660886275161  0.3511506151422837   T   T   T
  0.6855481321625868  0.6211319088634162  0.3538871356589512   T   T   T
  0.6647077950612035  0.8341746652689421  0.3460299774525786   T   T   T
  0.9156782866921985  0.0830177189898758  0.3477398303276593   T   T   T
  0.9178784161377794  0.3336805716620144  0.3469688028249385   T   T   T
  0.9175868591742129  0.5842073771383560  0.3474531333346768   T   T   T
  0.9185008960905453  0.8348015921488324  0.3462492209138893   T   T   T
  0.0833421456183316  0.1666568756581057  0.5388641089449635   F   F   F
  0.0833421456183316  0.4166568756581057  0.5388641089449635   F   F   F
  0.0833421456183316  0.6666568756581057  0.5388641089449635   F   F   F
  0.0833421456183316  0.9166568756581057  0.5388641089449635   F   F   F
  0.3333421456183316  0.1666568756581057  0.5388641089449635   F   F   F
  0.3333421456183316  0.4166568756581057  0.5388641089449635   F   F   F
  0.3333421456183316  0.6666568756581057  0.5388641089449635   F   F   F
  0.3333421456183316  0.9166568756581057  0.5388641089449635   F   F   F
  0.5833421456183316  0.1666568756581057  0.5388641089449635   F   F   F
  0.5833421456183316  0.4166568756581057  0.5388641089449635   F   F   F
  0.5833421456183316  0.6666568756581057  0.5388641089449635   F   F   F
  0.5833421456183316  0.9166568756581057  0.5388641089449635   F   F   F
  0.8333421456183316  0.1666568756581057  0.5388641089449635   F   F   F
  0.8333421456183316  0.4166568756581057  0.5388641089449635   F   F   F
  0.8333421456183316  0.6666568756581057  0.5388641089449635   F   F   F
  0.8333421456183316  0.9166568756581057  0.5388641089449635   F   F   F
  0.1666567714389657  0.0833423488661396  0.4763640990662594   F   F   F
  0.1666567714389657  0.3333423488661396  0.4763640990662594   F   F   F
  0.1666567714389657  0.5833423488661396  0.4763640990662594   F   F   F
  0.1666567714389657  0.8333423488661396  0.4763640990662594   F   F   F
  0.4166567714389657  0.0833423488661396  0.4763640990662594   F   F   F
  0.4166567714389657  0.3333423488661396  0.4763640990662594   F   F   F
  0.4166567714389657  0.5833423488661396  0.4763640990662594   F   F   F
  0.4166567714389657  0.8333423488661396  0.4763640990662594   F   F   F
  0.6666567714389657  0.0833423488661396  0.4763640990662594   F   F   F
  0.6666567714389657  0.3333423488661396  0.4763640990662594   F   F   F
  0.6666567714389657  0.5833423488661396  0.4763640990662594   F   F   F
  0.6666567714389657  0.8333423488661396  0.4763640990662594   F   F   F
  0.9166567714389657  0.0833423488661396  0.4763640990662594   F   F   F
  0.9166567714389657  0.3333423488661396  0.4763640990662594   F   F   F
  0.9166567714389657  0.5833423488661396  0.4763640990662594   F   F   F
  0.9166567714389657  0.8333423488661396  0.4763640990662594   F   F   F
  0.0833420212035350  0.1666567869075877  0.6638641089449635   F   F   F
  0.0833420212035350  0.4166567869075877  0.6638641089449635   F   F   F
  0.0833420212035350  0.6666567869075877  0.6638641089449635   F   F   F
  0.0833420212035350  0.9166567869075877  0.6638641089449635   F   F   F
  0.3333420212035350  0.1666567869075877  0.6638641089449635   F   F   F
  0.3333420212035350  0.4166567869075877  0.6638641089449635   F   F   F
  0.3333420212035350  0.6666567869075877  0.6638641089449635   F   F   F
  0.3333420212035350  0.9166567869075877  0.6638641089449635   F   F   F
  0.5833420212035350  0.1666567869075877  0.6638641089449635   F   F   F
  0.5833420212035350  0.4166567869075877  0.6638641089449635   F   F   F
  0.5833420212035350  0.6666567869075877  0.6638641089449635   F   F   F
  0.5833420212035350  0.9166567869075877  0.6638641089449635   F   F   F
  0.8333420212035350  0.1666567869075877  0.6638641089449635   F   F   F
  0.8333420212035350  0.4166567869075877  0.6638641089449635   F   F   F
  0.8333420212035350  0.6666567869075877  0.6638641089449635   F   F   F
  0.8333420212035350  0.9166567869075877  0.6638641089449635   F   F   F
  0.1666566470241690  0.0833422601156144  0.6013640990662594   F   F   F
  0.1666566470241690  0.3333422601156215  0.6013640990662594   F   F   F
  0.1666566470241690  0.5833422601156144  0.6013640990662594   F   F   F
  0.1666566470241690  0.8333422601156144  0.6013640990662594   F   F   F
  0.4166566470241690  0.0833422601156144  0.6013640990662594   F   F   F
  0.4166566470241690  0.3333422601156215  0.6013640990662594   F   F   F
  0.4166566470241690  0.5833422601156144  0.6013640990662594   F   F   F
  0.4166566470241690  0.8333422601156144  0.6013640990662594   F   F   F
  0.6666566470241690  0.0833422601156144  0.6013640990662594   F   F   F
  0.6666566470241690  0.3333422601156215  0.6013640990662594   F   F   F
  0.6666566470241690  0.5833422601156144  0.6013640990662594   F   F   F
  0.6666566470241690  0.8333422601156144  0.6013640990662594   F   F   F
  0.9166566470241690  0.0833422601156144  0.6013640990662594   F   F   F
  0.9166566470241690  0.3333422601156215  0.6013640990662594   F   F   F
  0.9166566470241690  0.5833422601156144  0.6013640990662594   F   F   F
  0.9166566470241690  0.8333422601156144  0.6013640990662594   F   F   F
  0.0823628931421055  0.1659858097874083  0.3384523292783034   T   T   T
  0.0837769831365568  0.4177378680553819  0.3379596023110347   T   T   T
  0.0843765642735265  0.6673704071456591  0.3387861917070680   T   T   T
  0.0843529380097440  0.9165057233743442  0.3375384661907458   T   T   T
  0.3339516798038151  0.1649831004437362  0.3362669380258759   T   T   T
  0.3319519983644703  0.4184500668406996  0.3363513608980750   T   T   T
  0.3329035409576591  0.6671776576807382  0.3388620632005700   T   T   T
  0.3325878735225107  0.9153953772169717  0.3389183940656146   T   T   T
  0.5802722103055097  0.1669822966615157  0.3359139619765500   T   T   T
  0.5814518721701267  0.6652467350015964  0.3357688120147849   T   T   T
  0.5815980803804297  0.9170166903118332  0.3374558081423504   T   T   T
  0.8325177251408654  0.1664683515478954  0.3384182750304398   T   T   T
  0.8369422512349954  0.4193487751998286  0.3362284437613917   T   T   T
  0.8341163614595589  0.6661645122778179  0.3359936658790400   T   T   T
  0.8326948863427558  0.9166529085101768  0.3381101427557059   T   T   T
  0.1674421689931932  0.0841615188091764  0.3975834849614411   T   T   T
  0.1669895625137551  0.3330308756436469  0.3977456106796859   T   T   T
  0.1662800060107690  0.5826910561186204  0.3982749660540937   T   T   T
  0.1661288262336445  0.8337953092662813  0.3982831265387986   T   T   T
  0.4169941268549221  0.0842156625544647  0.3981595651531751   T   T   T
  0.4182788484660499  0.3344764045086280  0.3978827984864303   T   T   T
  0.4169369365154065  0.5827125428262840  0.3977677318379601   T   T   T
  0.4171646182930672  0.8335766788277025  0.3983224099679089   T   T   T
  0.6660695364445286  0.0843040727127462  0.3974328288477958   T   T   T
  0.6661366462611772  0.3346535313376842  0.3978292220865680   T   T   T
  0.6665024833655637  0.5833530411923730  0.3991902879617336   T   T   T
  0.6662276227032242  0.8326350242218787  0.3972861237392003   T   T   T
  0.9162325702887046  0.0831863111685912  0.3982669773770198   T   T   T
  0.9158964734885776  0.3333185307728269  0.3977954901060561   T   T   T
  0.9158842187455504  0.5830821542765161  0.3977616211267666   T   T   T
  0.9158304102902909  0.8327921829024039  0.3974046809650861   T   T   T
  0.0833222007698211  0.1666770668236666  0.4611358956743672   F   F   F
  0.0833222007698211  0.4166770668236666  0.4611358956743672   F   F   F
  0.0833222007698211  0.6666770668236666  0.4611358956743672   F   F   F
  0.0833222007698211  0.9166770668236666  0.4611358956743672   F   F   F
  0.3333222007698211  0.1666770668236666  0.4611358956743672   F   F   F
  0.3333222007698211  0.4166770668236666  0.4611358956743672   F   F   F
  0.3333222007698211  0.6666770668236666  0.4611358956743672   F   F   F
  0.3333222007698211  0.9166770668236666  0.4611358956743672   F   F   F
  0.5833222007698211  0.1666770668236666  0.4611358956743672   F   F   F
  0.5833222007698211  0.4166770668236666  0.4611358956743672   F   F   F
  0.5833222007698211  0.6666770668236666  0.4611358956743672   F   F   F
  0.5833222007698211  0.9166770668236666  0.4611358956743672   F   F   F
  0.8333222007698211  0.1666770668236666  0.4611358956743672   F   F   F
  0.8333222007698211  0.4166770668236666  0.4611358956743672   F   F   F
  0.8333222007698211  0.6666770668236666  0.4611358956743672   F   F   F
  0.8333222007698211  0.9166770668236666  0.4611358956743672   F   F   F
  0.1666768765361368  0.0833222886438278  0.5236358963144099   F   F   F
  0.1666768765361368  0.3333222886438278  0.5236358963144099   F   F   F
  0.1666768765361368  0.5833222886438278  0.5236358963144099   F   F   F
  0.1666768765361368  0.8333222886438278  0.5236358963144099   F   F   F
  0.4166768765361368  0.0833222886438278  0.5236358963144099   F   F   F
  0.4166768765361368  0.3333222886438278  0.5236358963144099   F   F   F
  0.4166768765361368  0.5833222886438278  0.5236358963144099   F   F   F
  0.4166768765361368  0.8333222886438278  0.5236358963144099   F   F   F
  0.6666768765361368  0.0833222886438278  0.5236358963144099   F   F   F
  0.6666768765361368  0.3333222886438278  0.5236358963144099   F   F   F
  0.6666768765361368  0.5833222886438278  0.5236358963144099   F   F   F
  0.6666768765361368  0.8333222886438278  0.5236358963144099   F   F   F
  0.9166768765361368  0.0833222886438278  0.5236358963144099   F   F   F
  0.9166768765361368  0.3333222886438278  0.5236358963144099   F   F   F
  0.9166768765361368  0.5833222886438278  0.5236358963144099   F   F   F
  0.9166768765361368  0.8333222886438278  0.5236358963144099   F   F   F
  0.0833220763550244  0.1666769780731485  0.5861358956743672   F   F   F
  0.0833220763550244  0.4166769780731485  0.5861358956743672   F   F   F
  0.0833220763550244  0.6666769780731485  0.5861358956743672   F   F   F
  0.0833220763550244  0.9166769780731485  0.5861358956743672   F   F   F
  0.3333220763550244  0.1666769780731485  0.5861358956743672   F   F   F
  0.3333220763550244  0.4166769780731485  0.5861358956743672   F   F   F
  0.3333220763550244  0.6666769780731485  0.5861358956743672   F   F   F
  0.3333220763550244  0.9166769780731485  0.5861358956743672   F   F   F
  0.5833220763550244  0.1666769780731485  0.5861358956743672   F   F   F
  0.5833220763550244  0.4166769780731485  0.5861358956743672   F   F   F
  0.5833220763550244  0.6666769780731485  0.5861358956743672   F   F   F
  0.5833220763550244  0.9166769780731485  0.5861358956743672   F   F   F
  0.8333220763550244  0.1666769780731485  0.5861358956743672   F   F   F
  0.8333220763550244  0.4166769780731485  0.5861358956743672   F   F   F
  0.8333220763550244  0.6666769780731485  0.5861358956743672   F   F   F
  0.8333220763550244  0.9166769780731485  0.5861358956743672   F   F   F
  0.1666767521213401  0.0833221998933027  0.6486358963144099   F   F   F
  0.1666767521213401  0.3333221998933027  0.6486358963144099   F   F   F
  0.1666767521213401  0.5833221998933027  0.6486358963144099   F   F   F
  0.1666767521213401  0.8333221998933027  0.6486358963144099   F   F   F
  0.4166767521213401  0.0833221998933027  0.6486358963144099   F   F   F
  0.4166767521213401  0.3333221998933027  0.6486358963144099   F   F   F
  0.4166767521213401  0.5833221998933027  0.6486358963144099   F   F   F
  0.4166767521213401  0.8333221998933027  0.6486358963144099   F   F   F
  0.6666767521213401  0.0833221998933027  0.6486358963144099   F   F   F
  0.6666767521213401  0.3333221998933027  0.6486358963144099   F   F   F
  0.6666767521213401  0.5833221998933027  0.6486358963144099   F   F   F
  0.6666767521213401  0.8333221998933027  0.6486358963144099   F   F   F
  0.9166767521213401  0.0833221998933027  0.6486358963144099   F   F   F
  0.9166767521213401  0.3333221998933027  0.6486358963144099   F   F   F
  0.9166767521213401  0.5833221998933027  0.6486358963144099   F   F   F
  0.9166767521213401  0.8333221998933027  0.6486358963144099   F   F   F
  0.0833425000000005  0.1666574999999995  0.7015944380000008   F   F   F
  0.0833425000000005  0.4166574999999995  0.7015944380000008   F   F   F
  0.0833425000000005  0.6666574999999995  0.7015944380000008   F   F   F
  0.0833425000000005  0.9166574999999995  0.7015944380000008   F   F   F
  0.3333425000000005  0.1666574999999995  0.7015944380000008   F   F   F
  0.3333425000000005  0.4166574999999995  0.7015944380000008   F   F   F
  0.3333425000000005  0.6666574999999995  0.7015944380000008   F   F   F
  0.3333425000000005  0.9166574999999995  0.7015944380000008   F   F   F
  0.5833425000000005  0.1666574999999995  0.7015944380000008   F   F   F
  0.5833425000000005  0.4166574999999995  0.7015944380000008   F   F   F
  0.5833425000000005  0.6666574999999995  0.7015944380000008   F   F   F
  0.5833425000000005  0.9166574999999995  0.7015944380000008   F   F   F
  0.8333425000000005  0.1666574999999995  0.7015944380000008   F   F   F
  0.8333425000000005  0.4166574999999995  0.7015944380000008   F   F   F
  0.8333425000000005  0.6666574999999995  0.7015944380000008   F   F   F
  0.8333425000000005  0.9166574999999995  0.7015944380000008   F   F   F
  0.5602060915167214  0.3768031280921250  0.3212739308403246   T   T   T
  0.5867288765942533  0.4424802852635122  0.3059379924127887   T   T   T
  0.5256331008483064  0.3017939914252320  0.3089497597313202   T   T   T
 
  0.00000000E+00  0.00000000E+00  0.00000000E+00
  0.00000000E+00  0.00000000E+00  0.00000000E+00
  0.00000000E+00  0.00000000E+00  0.00000000E+00
  0.00000000E+00  0.00000000E+00  0.00000000E+00
  0.00000000E+00  0.00000000E+00  0.00000000E+00
  0.00000000E+00  0.00000000E+00  0.00000000E+00
  0.00000000E+00  0.00000000E+00  0.00000000E+00
  0.00000000E+00  0.00000000E+00  0.00000000E+00
  0.00000000E+00  0.00000000E+00  0.00000000E+00
  0.00000000E+00  0.00000000E+00  0.00000000E+00
  0.00000000E+00  0.00000000E+00  0.00000000E+00
  0.00000000E+00  0.00000000E+00  0.00000000E+00
  0.00000000E+00  0.00000000E+00  0.00000000E+00
  0.00000000E+00  0.00000000E+00  0.00000000E+00
  0.00000000E+00  0.00000000E+00  0.00000000E+00
  0.00000000E+00  0.00000000E+00  0.00000000E+00
  0.00000000E+00  0.00000000E+00  0.00000000E+00
  0.00000000E+00  0.00000000E+00  0.00000000E+00
  0.00000000E+00  0.00000000E+00  0.00000000E+00
  0.00000000E+00  0.00000000E+00  0.00000000E+00
  0.00000000E+00  0.00000000E+00  0.00000000E+00
  0.00000000E+00  0.00000000E+00  0.00000000E+00
  0.00000000E+00  0.00000000E+00  0.00000000E+00
  0.00000000E+00  0.00000000E+00  0.00000000E+00
  0.00000000E+00  0.00000000E+00  0.00000000E+00
  0.00000000E+00  0.00000000E+00  0.00000000E+00
  0.00000000E+00  0.00000000E+00  0.00000000E+00
  0.00000000E+00  0.00000000E+00  0.00000000E+00
  0.00000000E+00  0.00000000E+00  0.00000000E+00
  0.00000000E+00  0.00000000E+00  0.00000000E+00
  0.00000000E+00  0.00000000E+00  0.00000000E+00
  0.00000000E+00  0.00000000E+00  0.00000000E+00
  0.00000000E+00  0.00000000E+00  0.00000000E+00
  0.00000000E+00  0.00000000E+00  0.00000000E+00
  0.00000000E+00  0.00000000E+00  0.00000000E+00
  0.00000000E+00  0.00000000E+00  0.00000000E+00
  0.00000000E+00  0.00000000E+00  0.00000000E+00
  0.00000000E+00  0.00000000E+00  0.00000000E+00
  0.00000000E+00  0.00000000E+00  0.00000000E+00
  0.00000000E+00  0.00000000E+00  0.00000000E+00
  0.00000000E+00  0.00000000E+00  0.00000000E+00
  0.00000000E+00  0.00000000E+00  0.00000000E+00
  0.00000000E+00  0.00000000E+00  0.00000000E+00
  0.00000000E+00  0.00000000E+00  0.00000000E+00
  0.00000000E+00  0.00000000E+00  0.00000000E+00
  0.00000000E+00  0.00000000E+00  0.00000000E+00
  0.00000000E+00  0.00000000E+00  0.00000000E+00
  0.00000000E+00  0.00000000E+00  0.00000000E+00
  0.00000000E+00  0.00000000E+00  0.00000000E+00
  0.00000000E+00  0.00000000E+00  0.00000000E+00
  0.00000000E+00  0.00000000E+00  0.00000000E+00
  0.00000000E+00  0.00000000E+00  0.00000000E+00
  0.00000000E+00  0.00000000E+00  0.00000000E+00
  0.00000000E+00  0.00000000E+00  0.00000000E+00
  0.00000000E+00  0.00000000E+00  0.00000000E+00
  0.00000000E+00  0.00000000E+00  0.00000000E+00
  0.00000000E+00  0.00000000E+00  0.00000000E+00
  0.00000000E+00  0.00000000E+00  0.00000000E+00
  0.00000000E+00  0.00000000E+00  0.00000000E+00
  0.00000000E+00  0.00000000E+00  0.00000000E+00
  0.00000000E+00  0.00000000E+00  0.00000000E+00
  0.00000000E+00  0.00000000E+00  0.00000000E+00
  0.00000000E+00  0.00000000E+00  0.00000000E+00
  0.00000000E+00  0.00000000E+00  0.00000000E+00
  0.00000000E+00  0.00000000E+00  0.00000000E+00
  0.00000000E+00  0.00000000E+00  0.00000000E+00
  0.00000000E+00  0.00000000E+00  0.00000000E+00
  0.00000000E+00  0.00000000E+00  0.00000000E+00
  0.00000000E+00  0.00000000E+00  0.00000000E+00
  0.00000000E+00  0.00000000E+00  0.00000000E+00
  0.00000000E+00  0.00000000E+00  0.00000000E+00
  0.00000000E+00  0.00000000E+00  0.00000000E+00
  0.00000000E+00  0.00000000E+00  0.00000000E+00
  0.00000000E+00  0.00000000E+00  0.00000000E+00
  0.00000000E+00  0.00000000E+00  0.00000000E+00
  0.00000000E+00  0.00000000E+00  0.00000000E+00
  0.00000000E+00  0.00000000E+00  0.00000000E+00
  0.00000000E+00  0.00000000E+00  0.00000000E+00
  0.00000000E+00  0.00000000E+00  0.00000000E+00
  0.00000000E+00  0.00000000E+00  0.00000000E+00
  0.00000000E+00  0.00000000E+00  0.00000000E+00
  0.00000000E+00  0.00000000E+00  0.00000000E+00
  0.00000000E+00  0.00000000E+00  0.00000000E+00
  0.00000000E+00  0.00000000E+00  0.00000000E+00
  0.00000000E+00  0.00000000E+00  0.00000000E+00
  0.00000000E+00  0.00000000E+00  0.00000000E+00
  0.00000000E+00  0.00000000E+00  0.00000000E+00
  0.00000000E+00  0.00000000E+00  0.00000000E+00
  0.00000000E+00  0.00000000E+00  0.00000000E+00
  0.00000000E+00  0.00000000E+00  0.00000000E+00
  0.00000000E+00  0.00000000E+00  0.00000000E+00
  0.00000000E+00  0.00000000E+00  0.00000000E+00
  0.00000000E+00  0.00000000E+00  0.00000000E+00
  0.00000000E+00  0.00000000E+00  0.00000000E+00
  0.00000000E+00  0.00000000E+00  0.00000000E+00
  0.00000000E+00  0.00000000E+00  0.00000000E+00
  0.00000000E+00  0.00000000E+00  0.00000000E+00
  0.00000000E+00  0.00000000E+00  0.00000000E+00
  0.00000000E+00  0.00000000E+00  0.00000000E+00
  0.00000000E+00  0.00000000E+00  0.00000000E+00
  0.00000000E+00  0.00000000E+00  0.00000000E+00
  0.00000000E+00  0.00000000E+00  0.00000000E+00
  0.00000000E+00  0.00000000E+00  0.00000000E+00
  0.00000000E+00  0.00000000E+00  0.00000000E+00
  0.00000000E+00  0.00000000E+00  0.00000000E+00
  0.00000000E+00  0.00000000E+00  0.00000000E+00
  0.00000000E+00  0.00000000E+00  0.00000000E+00
  0.00000000E+00  0.00000000E+00  0.00000000E+00
  0.00000000E+00  0.00000000E+00  0.00000000E+00
  0.00000000E+00  0.00000000E+00  0.00000000E+00
  0.00000000E+00  0.00000000E+00  0.00000000E+00
  0.00000000E+00  0.00000000E+00  0.00000000E+00
  0.00000000E+00  0.00000000E+00  0.00000000E+00
  0.00000000E+00  0.00000000E+00  0.00000000E+00
  0.00000000E+00  0.00000000E+00  0.00000000E+00
  0.00000000E+00  0.00000000E+00  0.00000000E+00
  0.00000000E+00  0.00000000E+00  0.00000000E+00
  0.00000000E+00  0.00000000E+00  0.00000000E+00
  0.00000000E+00  0.00000000E+00  0.00000000E+00
  0.00000000E+00  0.00000000E+00  0.00000000E+00
  0.00000000E+00  0.00000000E+00  0.00000000E+00
  0.00000000E+00  0.00000000E+00  0.00000000E+00
  0.00000000E+00  0.00000000E+00  0.00000000E+00
  0.00000000E+00  0.00000000E+00  0.00000000E+00
  0.00000000E+00  0.00000000E+00  0.00000000E+00
  0.00000000E+00  0.00000000E+00  0.00000000E+00
  0.00000000E+00  0.00000000E+00  0.00000000E+00
  0.00000000E+00  0.00000000E+00  0.00000000E+00
  0.00000000E+00  0.00000000E+00  0.00000000E+00
  0.00000000E+00  0.00000000E+00  0.00000000E+00
  0.00000000E+00  0.00000000E+00  0.00000000E+00
  0.00000000E+00  0.00000000E+00  0.00000000E+00
  0.00000000E+00  0.00000000E+00  0.00000000E+00
  0.00000000E+00  0.00000000E+00  0.00000000E+00
  0.00000000E+00  0.00000000E+00  0.00000000E+00
  0.00000000E+00  0.00000000E+00  0.00000000E+00
  0.00000000E+00  0.00000000E+00  0.00000000E+00
  0.00000000E+00  0.00000000E+00  0.00000000E+00
  0.00000000E+00  0.00000000E+00  0.00000000E+00
  0.00000000E+00  0.00000000E+00  0.00000000E+00
  0.00000000E+00  0.00000000E+00  0.00000000E+00
  0.00000000E+00  0.00000000E+00  0.00000000E+00
  0.00000000E+00  0.00000000E+00  0.00000000E+00
  0.00000000E+00  0.00000000E+00  0.00000000E+00
  0.00000000E+00  0.00000000E+00  0.00000000E+00
  0.00000000E+00  0.00000000E+00  0.00000000E+00
  0.00000000E+00  0.00000000E+00  0.00000000E+00
  0.00000000E+00  0.00000000E+00  0.00000000E+00
  0.00000000E+00  0.00000000E+00  0.00000000E+00
  0.00000000E+00  0.00000000E+00  0.00000000E+00
  0.00000000E+00  0.00000000E+00  0.00000000E+00
  0.00000000E+00  0.00000000E+00  0.00000000E+00
  0.00000000E+00  0.00000000E+00  0.00000000E+00
  0.00000000E+00  0.00000000E+00  0.00000000E+00
  0.00000000E+00  0.00000000E+00  0.00000000E+00
  0.00000000E+00  0.00000000E+00  0.00000000E+00
  0.00000000E+00  0.00000000E+00  0.00000000E+00
  0.00000000E+00  0.00000000E+00  0.00000000E+00
  0.00000000E+00  0.00000000E+00  0.00000000E+00
  0.00000000E+00  0.00000000E+00  0.00000000E+00
  0.00000000E+00  0.00000000E+00  0.00000000E+00
  0.00000000E+00  0.00000000E+00  0.00000000E+00
  0.00000000E+00  0.00000000E+00  0.00000000E+00
  0.00000000E+00  0.00000000E+00  0.00000000E+00
  0.00000000E+00  0.00000000E+00  0.00000000E+00
  0.00000000E+00  0.00000000E+00  0.00000000E+00
  0.00000000E+00  0.00000000E+00  0.00000000E+00
  0.00000000E+00  0.00000000E+00  0.00000000E+00
  0.00000000E+00  0.00000000E+00  0.00000000E+00
  0.00000000E+00  0.00000000E+00  0.00000000E+00
  0.00000000E+00  0.00000000E+00  0.00000000E+00
  0.00000000E+00  0.00000000E+00  0.00000000E+00
  0.00000000E+00  0.00000000E+00  0.00000000E+00
  0.00000000E+00  0.00000000E+00  0.00000000E+00
  0.00000000E+00  0.00000000E+00  0.00000000E+00
  0.00000000E+00  0.00000000E+00  0.00000000E+00
  0.00000000E+00  0.00000000E+00  0.00000000E+00
  0.00000000E+00  0.00000000E+00  0.00000000E+00
  0.00000000E+00  0.00000000E+00  0.00000000E+00
  0.00000000E+00  0.00000000E+00  0.00000000E+00
  0.00000000E+00  0.00000000E+00  0.00000000E+00
  0.00000000E+00  0.00000000E+00  0.00000000E+00
  0.00000000E+00  0.00000000E+00  0.00000000E+00
  0.00000000E+00  0.00000000E+00  0.00000000E+00
  0.00000000E+00  0.00000000E+00  0.00000000E+00
  0.00000000E+00  0.00000000E+00  0.00000000E+00
  0.00000000E+00  0.00000000E+00  0.00000000E+00
  0.00000000E+00  0.00000000E+00  0.00000000E+00
  0.00000000E+00  0.00000000E+00  0.00000000E+00
  0.00000000E+00  0.00000000E+00  0.00000000E+00
  0.00000000E+00  0.00000000E+00  0.00000000E+00
  0.00000000E+00  0.00000000E+00  0.00000000E+00
  0.00000000E+00  0.00000000E+00  0.00000000E+00
  0.00000000E+00  0.00000000E+00  0.00000000E+00
  0.00000000E+00  0.00000000E+00  0.00000000E+00
  0.00000000E+00  0.00000000E+00  0.00000000E+00
  0.00000000E+00  0.00000000E+00  0.00000000E+00
  0.00000000E+00  0.00000000E+00  0.00000000E+00
  0.00000000E+00  0.00000000E+00  0.00000000E+00
  0.00000000E+00  0.00000000E+00  0.00000000E+00
  0.00000000E+00  0.00000000E+00  0.00000000E+00
  0.00000000E+00  0.00000000E+00  0.00000000E+00
  0.00000000E+00  0.00000000E+00  0.00000000E+00
  0.00000000E+00  0.00000000E+00  0.00000000E+00
  0.00000000E+00  0.00000000E+00  0.00000000E+00
  0.00000000E+00  0.00000000E+00  0.00000000E+00
  0.00000000E+00  0.00000000E+00  0.00000000E+00
  0.00000000E+00  0.00000000E+00  0.00000000E+00
  0.00000000E+00  0.00000000E+00  0.00000000E+00
  0.00000000E+00  0.00000000E+00  0.00000000E+00
