Zn96 H18 O97                            
   1.00000000000000     
    12.9159907272337371    0.0000000000000000    0.0000000000000008
    -6.4575301003323453   11.1858448318051593    0.0000000000000008
     0.0000000000000000    0.0000000000000000   41.8715658066988325
   Zn   O    H    O    H 
    96    96    16     1     2
Selective dynamics
Direct
  0.0831801167826840  0.1668440662532778  0.4126054462660265   T   T   T
  0.0838035508894919  0.4166336437029484  0.4126060494827021   T   T   T
  0.0833981143908736  0.6666004975084366  0.4127879429499904   T   T   T
  0.0832335170135259  0.9168557159151569  0.4127804208660496   T   T   T
  0.3331791943680016  0.1663079927603406  0.4126304911706178   T   T   T
  0.3331732515008974  0.4168269976649515  0.4127452913804919   T   T   T
  0.3333692751184318  0.6661970075738395  0.4126063931696347   T   T   T
  0.3332636197169100  0.9162655058478476  0.4127365380407497   T   T   T
  0.5834257923189542  0.1665702090683438  0.4127651540048058   T   T   T
  0.5836881012518922  0.4168175135440254  0.4126306831197827   T   T   T
  0.5831586089824644  0.6668216440328688  0.4126053001931025   T   T   T
  0.5832407702424578  0.9169116697793270  0.4126810312329667   T   T   T
  0.8330856734413608  0.1667569662242493  0.4126817223782723   T   T   T
  0.8337313123242350  0.4167341866897757  0.4127369208727983   T   T   T
  0.8331407656554447  0.6667642632734279  0.4127807394799518   T   T   T
  0.8330053444253298  0.9169953990076598  0.4126911015541836   T   T   T
  0.1661246479561450  0.0830159263145622  0.3476497853370970   T   T   T
  0.1673689212189826  0.3334403995421635  0.3476051604624703   T   T   T
  0.1668851977582226  0.5831160088682817  0.3477706231290913   T   T   T
  0.1663926486664672  0.8331131863126197  0.3480691779803697   T   T   T
  0.4169578514733350  0.0830485970298352  0.3478576587332780   T   T   T
  0.4169507096911373  0.3330466029411397  0.3480184792639976   T   T   T
  0.4165621586977966  0.5826339243613332  0.3476062023977916   T   T   T
  0.4164546010987164  0.8326904705412096  0.3476954067987842   T   T   T
  0.6668493546534319  0.0831523396496155  0.3476653792335117   T   T   T
  0.6669459408015742  0.3330391919298940  0.3478569368834020   T   T   T
  0.6669822790108327  0.5838730316814268  0.3476504121266983   T   T   T
  0.6663522986296254  0.8330702493674036  0.3477049060695065   T   T   T
  0.9169271554754225  0.0836478379086101  0.3477037421474039   T   T   T
  0.9173073796920617  0.3335469910820202  0.3476960246663123   T   T   T
  0.9168841095903002  0.5836022338515017  0.3480698244597590   T   T   T
  0.9164870381813719  0.8335097501904675  0.3479845001541752   T   T   T
  0.0833421456183316  0.1666568756581057  0.5388641089449635   F   F   F
  0.0833421456183316  0.4166568756581057  0.5388641089449635   F   F   F
  0.0833421456183316  0.6666568756581057  0.5388641089449635   F   F   F
  0.0833421456183316  0.9166568756581057  0.5388641089449635   F   F   F
  0.3333421456183316  0.1666568756581057  0.5388641089449635   F   F   F
  0.3333421456183316  0.4166568756581057  0.5388641089449635   F   F   F
  0.3333421456183316  0.6666568756581057  0.5388641089449635   F   F   F
  0.3333421456183316  0.9166568756581057  0.5388641089449635   F   F   F
  0.5833421456183316  0.1666568756581057  0.5388641089449635   F   F   F
  0.5833421456183316  0.4166568756581057  0.5388641089449635   F   F   F
  0.5833421456183316  0.6666568756581057  0.5388641089449635   F   F   F
  0.5833421456183316  0.9166568756581057  0.5388641089449635   F   F   F
  0.8333421456183316  0.1666568756581057  0.5388641089449635   F   F   F
  0.8333421456183316  0.4166568756581057  0.5388641089449635   F   F   F
  0.8333421456183316  0.6666568756581057  0.5388641089449635   F   F   F
  0.8333421456183316  0.9166568756581057  0.5388641089449635   F   F   F
  0.1666567714389657  0.0833423488661396  0.4763640990662594   F   F   F
  0.1666567714389657  0.3333423488661396  0.4763640990662594   F   F   F
  0.1666567714389657  0.5833423488661396  0.4763640990662594   F   F   F
  0.1666567714389657  0.8333423488661396  0.4763640990662594   F   F   F
  0.4166567714389657  0.0833423488661396  0.4763640990662594   F   F   F
  0.4166567714389657  0.3333423488661396  0.4763640990662594   F   F   F
  0.4166567714389657  0.5833423488661396  0.4763640990662594   F   F   F
  0.4166567714389657  0.8333423488661396  0.4763640990662594   F   F   F
  0.6666567714389657  0.0833423488661396  0.4763640990662594   F   F   F
  0.6666567714389657  0.3333423488661396  0.4763640990662594   F   F   F
  0.6666567714389657  0.5833423488661396  0.4763640990662594   F   F   F
  0.6666567714389657  0.8333423488661396  0.4763640990662594   F   F   F
  0.9166567714389657  0.0833423488661396  0.4763640990662594   F   F   F
  0.9166567714389657  0.3333423488661396  0.4763640990662594   F   F   F
  0.9166567714389657  0.5833423488661396  0.4763640990662594   F   F   F
  0.9166567714389657  0.8333423488661396  0.4763640990662594   F   F   F
  0.0833420212035350  0.1666567869075877  0.6638641089449635   F   F   F
  0.0833420212035350  0.4166567869075877  0.6638641089449635   F   F   F
  0.0833420212035350  0.6666567869075877  0.6638641089449635   F   F   F
  0.0833420212035350  0.9166567869075877  0.6638641089449635   F   F   F
  0.3333420212035350  0.1666567869075877  0.6638641089449635   F   F   F
  0.3333420212035350  0.4166567869075877  0.6638641089449635   F   F   F
  0.3333420212035350  0.6666567869075877  0.6638641089449635   F   F   F
  0.3333420212035350  0.9166567869075877  0.6638641089449635   F   F   F
  0.5833420212035350  0.1666567869075877  0.6638641089449635   F   F   F
  0.5833420212035350  0.4166567869075877  0.6638641089449635   F   F   F
  0.5833420212035350  0.6666567869075877  0.6638641089449635   F   F   F
  0.5833420212035350  0.9166567869075877  0.6638641089449635   F   F   F
  0.8333420212035350  0.1666567869075877  0.6638641089449635   F   F   F
  0.8333420212035350  0.4166567869075877  0.6638641089449635   F   F   F
  0.8333420212035350  0.6666567869075877  0.6638641089449635   F   F   F
  0.8333420212035350  0.9166567869075877  0.6638641089449635   F   F   F
  0.1666566470241690  0.0833422601156144  0.6013640990662594   F   F   F
  0.1666566470241690  0.3333422601156215  0.6013640990662594   F   F   F
  0.1666566470241690  0.5833422601156144  0.6013640990662594   F   F   F
  0.1666566470241690  0.8333422601156144  0.6013640990662594   F   F   F
  0.4166566470241690  0.0833422601156144  0.6013640990662594   F   F   F
  0.4166566470241690  0.3333422601156215  0.6013640990662594   F   F   F
  0.4166566470241690  0.5833422601156144  0.6013640990662594   F   F   F
  0.4166566470241690  0.8333422601156144  0.6013640990662594   F   F   F
  0.6666566470241690  0.0833422601156144  0.6013640990662594   F   F   F
  0.6666566470241690  0.3333422601156215  0.6013640990662594   F   F   F
  0.6666566470241690  0.5833422601156144  0.6013640990662594   F   F   F
  0.6666566470241690  0.8333422601156144  0.6013640990662594   F   F   F
  0.9166566470241690  0.0833422601156144  0.6013640990662594   F   F   F
  0.9166566470241690  0.3333422601156215  0.6013640990662594   F   F   F
  0.9166566470241690  0.5833422601156144  0.6013640990662594   F   F   F
  0.9166566470241690  0.8333422601156144  0.6013640990662594   F   F   F
  0.0833780014910225  0.1666158552433954  0.3386689943990304   T   T   T
  0.0838757627488766  0.4166963011546496  0.3384349981065631   T   T   T
  0.0834164192945766  0.6665803698237285  0.3391168287407674   T   T   T
  0.0829914417495244  0.9163084838824601  0.3391439388899275   T   T   T
  0.3331883174747980  0.1660903039983814  0.3397472021203078   T   T   T
  0.3338950517353485  0.4161089628481954  0.3365160924813610   T   T   T
  0.3333041717054778  0.6661211788887097  0.3384334779999717   T   T   T
  0.3330235021485100  0.9162081980172100  0.3393168020605583   T   T   T
  0.5833680454636799  0.1666304606657019  0.3390006882015971   T   T   T
  0.5839075667528063  0.4168114694535540  0.3397466043509260   T   T   T
  0.5833859746111361  0.6666225130194862  0.3386682799455742   T   T   T
  0.5830468132994464  0.9165327728688636  0.3387915996229760   T   T   T
  0.8334678075810980  0.1669543733295488  0.3387908274738232   T   T   T
  0.8337849110482228  0.4169724151605650  0.3393176849812922   T   T   T
  0.8336901856268183  0.6670059056900689  0.3391439013208929   T   T   T
  0.8331593935802121  0.9168396227207068  0.3391235571110609   T   T   T
  0.1663266393703021  0.0833204747465699  0.3983731114846015   T   T   T
  0.1673696605255806  0.3336007650902473  0.3978478372396607   T   T   T
  0.1666352977481708  0.5833697071732037  0.3982773985128757   T   T   T
  0.1664465094950255  0.8333003512038759  0.3985686764325134   T   T   T
  0.4168745471451124  0.0831299835155066  0.3985033470492125   T   T   T
  0.4163748379413282  0.3336215297187855  0.3984941708670993   T   T   T
  0.4164002972874091  0.5826296972054315  0.3978485285335439   T   T   T
  0.4166184265653060  0.8329085879721194  0.3983383931494300   T   T   T
  0.6666436610816106  0.0833537589853132  0.3983193042218950   T   T   T
  0.6668673582239122  0.3331228320571195  0.3985031630013563   T   T   T
  0.6666760066950073  0.5836690112297210  0.3983729661099584   T   T   T
  0.6663372052603156  0.8334371193773928  0.3983512733299900   T   T   T
  0.9165608522982235  0.0836607082766203  0.3983513443102569   T   T   T
  0.9170903157780413  0.3333806380064238  0.3983386598069735   T   T   T
  0.9166983059479182  0.5835523225351331  0.3985685976862886   T   T   T
  0.9164858236285770  0.8335113794281596  0.3985385844062788   T   T   T
  0.0833222007698211  0.1666770668236666  0.4611358956743672   F   F   F
  0.0833222007698211  0.4166770668236666  0.4611358956743672   F   F   F
  0.0833222007698211  0.6666770668236666  0.4611358956743672   F   F   F
  0.0833222007698211  0.9166770668236666  0.4611358956743672   F   F   F
  0.3333222007698211  0.1666770668236666  0.4611358956743672   F   F   F
  0.3333222007698211  0.4166770668236666  0.4611358956743672   F   F   F
  0.3333222007698211  0.6666770668236666  0.4611358956743672   F   F   F
  0.3333222007698211  0.9166770668236666  0.4611358956743672   F   F   F
  0.5833222007698211  0.1666770668236666  0.4611358956743672   F   F   F
  0.5833222007698211  0.4166770668236666  0.4611358956743672   F   F   F
  0.5833222007698211  0.6666770668236666  0.4611358956743672   F   F   F
  0.5833222007698211  0.9166770668236666  0.4611358956743672   F   F   F
  0.8333222007698211  0.1666770668236666  0.4611358956743672   F   F   F
  0.8333222007698211  0.4166770668236666  0.4611358956743672   F   F   F
  0.8333222007698211  0.6666770668236666  0.4611358956743672   F   F   F
  0.8333222007698211  0.9166770668236666  0.4611358956743672   F   F   F
  0.1666768765361368  0.0833222886438278  0.5236358963144099   F   F   F
  0.1666768765361368  0.3333222886438278  0.5236358963144099   F   F   F
  0.1666768765361368  0.5833222886438278  0.5236358963144099   F   F   F
  0.1666768765361368  0.8333222886438278  0.5236358963144099   F   F   F
  0.4166768765361368  0.0833222886438278  0.5236358963144099   F   F   F
  0.4166768765361368  0.3333222886438278  0.5236358963144099   F   F   F
  0.4166768765361368  0.5833222886438278  0.5236358963144099   F   F   F
  0.4166768765361368  0.8333222886438278  0.5236358963144099   F   F   F
  0.6666768765361368  0.0833222886438278  0.5236358963144099   F   F   F
  0.6666768765361368  0.3333222886438278  0.5236358963144099   F   F   F
  0.6666768765361368  0.5833222886438278  0.5236358963144099   F   F   F
  0.6666768765361368  0.8333222886438278  0.5236358963144099   F   F   F
  0.9166768765361368  0.0833222886438278  0.5236358963144099   F   F   F
  0.9166768765361368  0.3333222886438278  0.5236358963144099   F   F   F
  0.9166768765361368  0.5833222886438278  0.5236358963144099   F   F   F
  0.9166768765361368  0.8333222886438278  0.5236358963144099   F   F   F
  0.0833220763550244  0.1666769780731485  0.5861358956743672   F   F   F
  0.0833220763550244  0.4166769780731485  0.5861358956743672   F   F   F
  0.0833220763550244  0.6666769780731485  0.5861358956743672   F   F   F
  0.0833220763550244  0.9166769780731485  0.5861358956743672   F   F   F
  0.3333220763550244  0.1666769780731485  0.5861358956743672   F   F   F
  0.3333220763550244  0.4166769780731485  0.5861358956743672   F   F   F
  0.3333220763550244  0.6666769780731485  0.5861358956743672   F   F   F
  0.3333220763550244  0.9166769780731485  0.5861358956743672   F   F   F
  0.5833220763550244  0.1666769780731485  0.5861358956743672   F   F   F
  0.5833220763550244  0.4166769780731485  0.5861358956743672   F   F   F
  0.5833220763550244  0.6666769780731485  0.5861358956743672   F   F   F
  0.5833220763550244  0.9166769780731485  0.5861358956743672   F   F   F
  0.8333220763550244  0.1666769780731485  0.5861358956743672   F   F   F
  0.8333220763550244  0.4166769780731485  0.5861358956743672   F   F   F
  0.8333220763550244  0.6666769780731485  0.5861358956743672   F   F   F
  0.8333220763550244  0.9166769780731485  0.5861358956743672   F   F   F
  0.1666767521213401  0.0833221998933027  0.6486358963144099   F   F   F
  0.1666767521213401  0.3333221998933027  0.6486358963144099   F   F   F
  0.1666767521213401  0.5833221998933027  0.6486358963144099   F   F   F
  0.1666767521213401  0.8333221998933027  0.6486358963144099   F   F   F
  0.4166767521213401  0.0833221998933027  0.6486358963144099   F   F   F
  0.4166767521213401  0.3333221998933027  0.6486358963144099   F   F   F
  0.4166767521213401  0.5833221998933027  0.6486358963144099   F   F   F
  0.4166767521213401  0.8333221998933027  0.6486358963144099   F   F   F
  0.6666767521213401  0.0833221998933027  0.6486358963144099   F   F   F
  0.6666767521213401  0.3333221998933027  0.6486358963144099   F   F   F
  0.6666767521213401  0.5833221998933027  0.6486358963144099   F   F   F
  0.6666767521213401  0.8333221998933027  0.6486358963144099   F   F   F
  0.9166767521213401  0.0833221998933027  0.6486358963144099   F   F   F
  0.9166767521213401  0.3333221998933027  0.6486358963144099   F   F   F
  0.9166767521213401  0.5833221998933027  0.6486358963144099   F   F   F
  0.9166767521213401  0.8333221998933027  0.6486358963144099   F   F   F
  0.0833425000000005  0.1666574999999995  0.7015944380000008   F   F   F
  0.0833425000000005  0.4166574999999995  0.7015944380000008   F   F   F
  0.0833425000000005  0.6666574999999995  0.7015944380000008   F   F   F
  0.0833425000000005  0.9166574999999995  0.7015944380000008   F   F   F
  0.3333425000000005  0.1666574999999995  0.7015944380000008   F   F   F
  0.3333425000000005  0.4166574999999995  0.7015944380000008   F   F   F
  0.3333425000000005  0.6666574999999995  0.7015944380000008   F   F   F
  0.3333425000000005  0.9166574999999995  0.7015944380000008   F   F   F
  0.5833425000000005  0.1666574999999995  0.7015944380000008   F   F   F
  0.5833425000000005  0.4166574999999995  0.7015944380000008   F   F   F
  0.5833425000000005  0.6666574999999995  0.7015944380000008   F   F   F
  0.5833425000000005  0.9166574999999995  0.7015944380000008   F   F   F
  0.8333425000000005  0.1666574999999995  0.7015944380000008   F   F   F
  0.8333425000000005  0.4166574999999995  0.7015944380000008   F   F   F
  0.8333425000000005  0.6666574999999995  0.7015944380000008   F   F   F
  0.8333425000000005  0.9166574999999995  0.7015944380000008   F   F   F
  0.3596004949039431  0.3902084403833601  0.2696709626449196   T   T   T
  0.3239198867393784  0.4260650867905342  0.2566678545848528   T   T   T
  0.3455405554283233  0.4044104813210224  0.2919311557699497   T   T   T
 
  0.00000000E+00  0.00000000E+00  0.00000000E+00
  0.00000000E+00  0.00000000E+00  0.00000000E+00
  0.00000000E+00  0.00000000E+00  0.00000000E+00
  0.00000000E+00  0.00000000E+00  0.00000000E+00
  0.00000000E+00  0.00000000E+00  0.00000000E+00
  0.00000000E+00  0.00000000E+00  0.00000000E+00
  0.00000000E+00  0.00000000E+00  0.00000000E+00
  0.00000000E+00  0.00000000E+00  0.00000000E+00
  0.00000000E+00  0.00000000E+00  0.00000000E+00
  0.00000000E+00  0.00000000E+00  0.00000000E+00
  0.00000000E+00  0.00000000E+00  0.00000000E+00
  0.00000000E+00  0.00000000E+00  0.00000000E+00
  0.00000000E+00  0.00000000E+00  0.00000000E+00
  0.00000000E+00  0.00000000E+00  0.00000000E+00
  0.00000000E+00  0.00000000E+00  0.00000000E+00
  0.00000000E+00  0.00000000E+00  0.00000000E+00
  0.00000000E+00  0.00000000E+00  0.00000000E+00
  0.00000000E+00  0.00000000E+00  0.00000000E+00
  0.00000000E+00  0.00000000E+00  0.00000000E+00
  0.00000000E+00  0.00000000E+00  0.00000000E+00
  0.00000000E+00  0.00000000E+00  0.00000000E+00
  0.00000000E+00  0.00000000E+00  0.00000000E+00
  0.00000000E+00  0.00000000E+00  0.00000000E+00
  0.00000000E+00  0.00000000E+00  0.00000000E+00
  0.00000000E+00  0.00000000E+00  0.00000000E+00
  0.00000000E+00  0.00000000E+00  0.00000000E+00
  0.00000000E+00  0.00000000E+00  0.00000000E+00
  0.00000000E+00  0.00000000E+00  0.00000000E+00
  0.00000000E+00  0.00000000E+00  0.00000000E+00
  0.00000000E+00  0.00000000E+00  0.00000000E+00
  0.00000000E+00  0.00000000E+00  0.00000000E+00
  0.00000000E+00  0.00000000E+00  0.00000000E+00
  0.00000000E+00  0.00000000E+00  0.00000000E+00
  0.00000000E+00  0.00000000E+00  0.00000000E+00
  0.00000000E+00  0.00000000E+00  0.00000000E+00
  0.00000000E+00  0.00000000E+00  0.00000000E+00
  0.00000000E+00  0.00000000E+00  0.00000000E+00
  0.00000000E+00  0.00000000E+00  0.00000000E+00
  0.00000000E+00  0.00000000E+00  0.00000000E+00
  0.00000000E+00  0.00000000E+00  0.00000000E+00
  0.00000000E+00  0.00000000E+00  0.00000000E+00
  0.00000000E+00  0.00000000E+00  0.00000000E+00
  0.00000000E+00  0.00000000E+00  0.00000000E+00
  0.00000000E+00  0.00000000E+00  0.00000000E+00
  0.00000000E+00  0.00000000E+00  0.00000000E+00
  0.00000000E+00  0.00000000E+00  0.00000000E+00
  0.00000000E+00  0.00000000E+00  0.00000000E+00
  0.00000000E+00  0.00000000E+00  0.00000000E+00
  0.00000000E+00  0.00000000E+00  0.00000000E+00
  0.00000000E+00  0.00000000E+00  0.00000000E+00
  0.00000000E+00  0.00000000E+00  0.00000000E+00
  0.00000000E+00  0.00000000E+00  0.00000000E+00
  0.00000000E+00  0.00000000E+00  0.00000000E+00
  0.00000000E+00  0.00000000E+00  0.00000000E+00
  0.00000000E+00  0.00000000E+00  0.00000000E+00
  0.00000000E+00  0.00000000E+00  0.00000000E+00
  0.00000000E+00  0.00000000E+00  0.00000000E+00
  0.00000000E+00  0.00000000E+00  0.00000000E+00
  0.00000000E+00  0.00000000E+00  0.00000000E+00
  0.00000000E+00  0.00000000E+00  0.00000000E+00
  0.00000000E+00  0.00000000E+00  0.00000000E+00
  0.00000000E+00  0.00000000E+00  0.00000000E+00
  0.00000000E+00  0.00000000E+00  0.00000000E+00
  0.00000000E+00  0.00000000E+00  0.00000000E+00
  0.00000000E+00  0.00000000E+00  0.00000000E+00
  0.00000000E+00  0.00000000E+00  0.00000000E+00
  0.00000000E+00  0.00000000E+00  0.00000000E+00
  0.00000000E+00  0.00000000E+00  0.00000000E+00
  0.00000000E+00  0.00000000E+00  0.00000000E+00
  0.00000000E+00  0.00000000E+00  0.00000000E+00
  0.00000000E+00  0.00000000E+00  0.00000000E+00
  0.00000000E+00  0.00000000E+00  0.00000000E+00
  0.00000000E+00  0.00000000E+00  0.00000000E+00
  0.00000000E+00  0.00000000E+00  0.00000000E+00
  0.00000000E+00  0.00000000E+00  0.00000000E+00
  0.00000000E+00  0.00000000E+00  0.00000000E+00
  0.00000000E+00  0.00000000E+00  0.00000000E+00
  0.00000000E+00  0.00000000E+00  0.00000000E+00
  0.00000000E+00  0.00000000E+00  0.00000000E+00
  0.00000000E+00  0.00000000E+00  0.00000000E+00
  0.00000000E+00  0.00000000E+00  0.00000000E+00
  0.00000000E+00  0.00000000E+00  0.00000000E+00
  0.00000000E+00  0.00000000E+00  0.00000000E+00
  0.00000000E+00  0.00000000E+00  0.00000000E+00
  0.00000000E+00  0.00000000E+00  0.00000000E+00
  0.00000000E+00  0.00000000E+00  0.00000000E+00
  0.00000000E+00  0.00000000E+00  0.00000000E+00
  0.00000000E+00  0.00000000E+00  0.00000000E+00
  0.00000000E+00  0.00000000E+00  0.00000000E+00
  0.00000000E+00  0.00000000E+00  0.00000000E+00
  0.00000000E+00  0.00000000E+00  0.00000000E+00
  0.00000000E+00  0.00000000E+00  0.00000000E+00
  0.00000000E+00  0.00000000E+00  0.00000000E+00
  0.00000000E+00  0.00000000E+00  0.00000000E+00
  0.00000000E+00  0.00000000E+00  0.00000000E+00
  0.00000000E+00  0.00000000E+00  0.00000000E+00
  0.00000000E+00  0.00000000E+00  0.00000000E+00
  0.00000000E+00  0.00000000E+00  0.00000000E+00
  0.00000000E+00  0.00000000E+00  0.00000000E+00
  0.00000000E+00  0.00000000E+00  0.00000000E+00
  0.00000000E+00  0.00000000E+00  0.00000000E+00
  0.00000000E+00  0.00000000E+00  0.00000000E+00
  0.00000000E+00  0.00000000E+00  0.00000000E+00
  0.00000000E+00  0.00000000E+00  0.00000000E+00
  0.00000000E+00  0.00000000E+00  0.00000000E+00
  0.00000000E+00  0.00000000E+00  0.00000000E+00
  0.00000000E+00  0.00000000E+00  0.00000000E+00
  0.00000000E+00  0.00000000E+00  0.00000000E+00
  0.00000000E+00  0.00000000E+00  0.00000000E+00
  0.00000000E+00  0.00000000E+00  0.00000000E+00
  0.00000000E+00  0.00000000E+00  0.00000000E+00
  0.00000000E+00  0.00000000E+00  0.00000000E+00
  0.00000000E+00  0.00000000E+00  0.00000000E+00
  0.00000000E+00  0.00000000E+00  0.00000000E+00
  0.00000000E+00  0.00000000E+00  0.00000000E+00
  0.00000000E+00  0.00000000E+00  0.00000000E+00
  0.00000000E+00  0.00000000E+00  0.00000000E+00
  0.00000000E+00  0.00000000E+00  0.00000000E+00
  0.00000000E+00  0.00000000E+00  0.00000000E+00
  0.00000000E+00  0.00000000E+00  0.00000000E+00
  0.00000000E+00  0.00000000E+00  0.00000000E+00
  0.00000000E+00  0.00000000E+00  0.00000000E+00
  0.00000000E+00  0.00000000E+00  0.00000000E+00
  0.00000000E+00  0.00000000E+00  0.00000000E+00
  0.00000000E+00  0.00000000E+00  0.00000000E+00
  0.00000000E+00  0.00000000E+00  0.00000000E+00
  0.00000000E+00  0.00000000E+00  0.00000000E+00
  0.00000000E+00  0.00000000E+00  0.00000000E+00
  0.00000000E+00  0.00000000E+00  0.00000000E+00
  0.00000000E+00  0.00000000E+00  0.00000000E+00
  0.00000000E+00  0.00000000E+00  0.00000000E+00
  0.00000000E+00  0.00000000E+00  0.00000000E+00
  0.00000000E+00  0.00000000E+00  0.00000000E+00
  0.00000000E+00  0.00000000E+00  0.00000000E+00
  0.00000000E+00  0.00000000E+00  0.00000000E+00
  0.00000000E+00  0.00000000E+00  0.00000000E+00
  0.00000000E+00  0.00000000E+00  0.00000000E+00
  0.00000000E+00  0.00000000E+00  0.00000000E+00
  0.00000000E+00  0.00000000E+00  0.00000000E+00
  0.00000000E+00  0.00000000E+00  0.00000000E+00
  0.00000000E+00  0.00000000E+00  0.00000000E+00
  0.00000000E+00  0.00000000E+00  0.00000000E+00
  0.00000000E+00  0.00000000E+00  0.00000000E+00
  0.00000000E+00  0.00000000E+00  0.00000000E+00
  0.00000000E+00  0.00000000E+00  0.00000000E+00
  0.00000000E+00  0.00000000E+00  0.00000000E+00
  0.00000000E+00  0.00000000E+00  0.00000000E+00
  0.00000000E+00  0.00000000E+00  0.00000000E+00
  0.00000000E+00  0.00000000E+00  0.00000000E+00
  0.00000000E+00  0.00000000E+00  0.00000000E+00
  0.00000000E+00  0.00000000E+00  0.00000000E+00
  0.00000000E+00  0.00000000E+00  0.00000000E+00
  0.00000000E+00  0.00000000E+00  0.00000000E+00
  0.00000000E+00  0.00000000E+00  0.00000000E+00
  0.00000000E+00  0.00000000E+00  0.00000000E+00
  0.00000000E+00  0.00000000E+00  0.00000000E+00
  0.00000000E+00  0.00000000E+00  0.00000000E+00
  0.00000000E+00  0.00000000E+00  0.00000000E+00
  0.00000000E+00  0.00000000E+00  0.00000000E+00
  0.00000000E+00  0.00000000E+00  0.00000000E+00
  0.00000000E+00  0.00000000E+00  0.00000000E+00
  0.00000000E+00  0.00000000E+00  0.00000000E+00
  0.00000000E+00  0.00000000E+00  0.00000000E+00
  0.00000000E+00  0.00000000E+00  0.00000000E+00
  0.00000000E+00  0.00000000E+00  0.00000000E+00
  0.00000000E+00  0.00000000E+00  0.00000000E+00
  0.00000000E+00  0.00000000E+00  0.00000000E+00
  0.00000000E+00  0.00000000E+00  0.00000000E+00
  0.00000000E+00  0.00000000E+00  0.00000000E+00
  0.00000000E+00  0.00000000E+00  0.00000000E+00
  0.00000000E+00  0.00000000E+00  0.00000000E+00
  0.00000000E+00  0.00000000E+00  0.00000000E+00
  0.00000000E+00  0.00000000E+00  0.00000000E+00
  0.00000000E+00  0.00000000E+00  0.00000000E+00
  0.00000000E+00  0.00000000E+00  0.00000000E+00
  0.00000000E+00  0.00000000E+00  0.00000000E+00
  0.00000000E+00  0.00000000E+00  0.00000000E+00
  0.00000000E+00  0.00000000E+00  0.00000000E+00
  0.00000000E+00  0.00000000E+00  0.00000000E+00
  0.00000000E+00  0.00000000E+00  0.00000000E+00
  0.00000000E+00  0.00000000E+00  0.00000000E+00
  0.00000000E+00  0.00000000E+00  0.00000000E+00
  0.00000000E+00  0.00000000E+00  0.00000000E+00
  0.00000000E+00  0.00000000E+00  0.00000000E+00
  0.00000000E+00  0.00000000E+00  0.00000000E+00
  0.00000000E+00  0.00000000E+00  0.00000000E+00
  0.00000000E+00  0.00000000E+00  0.00000000E+00
  0.00000000E+00  0.00000000E+00  0.00000000E+00
  0.00000000E+00  0.00000000E+00  0.00000000E+00
  0.00000000E+00  0.00000000E+00  0.00000000E+00
  0.00000000E+00  0.00000000E+00  0.00000000E+00
  0.00000000E+00  0.00000000E+00  0.00000000E+00
  0.00000000E+00  0.00000000E+00  0.00000000E+00
  0.00000000E+00  0.00000000E+00  0.00000000E+00
  0.00000000E+00  0.00000000E+00  0.00000000E+00
  0.00000000E+00  0.00000000E+00  0.00000000E+00
  0.00000000E+00  0.00000000E+00  0.00000000E+00
  0.00000000E+00  0.00000000E+00  0.00000000E+00
  0.00000000E+00  0.00000000E+00  0.00000000E+00
  0.00000000E+00  0.00000000E+00  0.00000000E+00
  0.00000000E+00  0.00000000E+00  0.00000000E+00
  0.00000000E+00  0.00000000E+00  0.00000000E+00
  0.00000000E+00  0.00000000E+00  0.00000000E+00
  0.00000000E+00  0.00000000E+00  0.00000000E+00
  0.00000000E+00  0.00000000E+00  0.00000000E+00
  0.00000000E+00  0.00000000E+00  0.00000000E+00
  0.00000000E+00  0.00000000E+00  0.00000000E+00
  0.00000000E+00  0.00000000E+00  0.00000000E+00
  0.00000000E+00  0.00000000E+00  0.00000000E+00
  0.00000000E+00  0.00000000E+00  0.00000000E+00
  0.00000000E+00  0.00000000E+00  0.00000000E+00
