Zn96 H18 Pt4 O96
1.0
  12.9159908295000001    0.0000000000000000    0.0000000000000000
  -6.4575307008999996   11.1858444632000005    0.0000000000000000
   0.0000000000000000    0.0000000000000000   41.8715667725000031
Zn O H Pt O H
96 95 16 4 1 2
Selective dynamics
direct
   0.0833422689999992    0.1666569710000019    0.4138641059999982 F F F Zn
   0.0833422689999992    0.4166569710000019    0.4138641059999982 F F F Zn
   0.0833422689999993    0.6666569710000019    0.4138641059999982 F F F Zn
   0.0833422689999992    0.9166569710000020    0.4138641059999982 F F F Zn
   0.3333422540000014    0.1666569710000019    0.4138641059999982 F F F Zn
   0.3333422540000015    0.4166569710000019    0.4138641059999982 F F F Zn
   0.3333422540000016    0.6666569710000019    0.4138641059999982 F F F Zn
   0.3333422540000015    0.9166569710000020    0.4138641059999982 F F F Zn
   0.5833422540000015    0.1666569710000019    0.4138641059999982 F F F Zn
   0.5833422540000015    0.4166569710000019    0.4138641059999982 F F F Zn
   0.5833422540000015    0.6666569710000019    0.4138641059999982 F F F Zn
   0.5833422540000015    0.9166569710000020    0.4138641059999982 F F F Zn
   0.8333422540000015    0.1666569710000019    0.4138641059999982 F F F Zn
   0.8333422540000015    0.4166569710000019    0.4138641059999982 F F F Zn
   0.8333422540000015    0.6666569710000019    0.4138641059999982 F F F Zn
   0.8333422540000015    0.9166569710000020    0.4138641059999982 F F F Zn
   0.1666568959999992    0.0833424400000027    0.3513641059999983 F F F Zn
   0.1666568959999992    0.3333424329999987    0.3513641059999983 F F F Zn
   0.1666568959999992    0.5833424329999986    0.3513641059999983 F F F Zn
   0.1666568959999992    0.8333424329999986    0.3513641059999983 F F F Zn
   0.4166569109999969    0.0833424400000027    0.3513641059999983 F F F Zn
   0.4166569109999969    0.3333424329999987    0.3513641059999983 F F F Zn
   0.4166569109999969    0.5833424329999986    0.3513641059999983 F F F Zn
   0.4166569109999969    0.8333424329999986    0.3513641059999983 F F F Zn
   0.6666569109999969    0.0833424400000027    0.3513641059999983 F F F Zn
   0.6666569109999969    0.3333424329999987    0.3513641059999983 F F F Zn
   0.6666569109999969    0.5833424329999986    0.3513641059999983 F F F Zn
   0.6666569109999968    0.8333424329999986    0.3513641059999983 F F F Zn
   0.9166569109999970    0.0833424400000027    0.3513641059999983 F F F Zn
   0.9166569109999969    0.3333424329999987    0.3513641059999983 F F F Zn
   0.9166569109999968    0.5833424329999986    0.3513641059999983 F F F Zn
   0.9166569109999969    0.8333424329999986    0.3513641059999983 F F F Zn
   0.0833421419999993    0.1666568819999981    0.5388641360000008 F F F Zn
   0.0833421419999993    0.4166568819999981    0.5388641360000008 F F F Zn
   0.0833421419999993    0.6666568520000027    0.5388641360000008 F F F Zn
   0.0833421419999994    0.9166568520000027    0.5388641360000008 F F F Zn
   0.3333421350000023    0.1666568819999981    0.5388641360000008 F F F Zn
   0.3333421350000023    0.4166568819999981    0.5388641360000008 F F F Zn
   0.3333421350000023    0.6666568520000027    0.5388641360000008 F F F Zn
   0.3333421350000023    0.9166568520000027    0.5388641360000008 F F F Zn
   0.5833421350000023    0.1666568819999981    0.5388641360000008 F F F Zn
   0.5833421350000022    0.4166568819999981    0.5388641360000008 F F F Zn
   0.5833421350000023    0.6666568520000027    0.5388641360000008 F F F Zn
   0.5833421350000023    0.9166568520000027    0.5388641360000008 F F F Zn
   0.8333421350000022    0.1666568819999981    0.5388641360000008 F F F Zn
   0.8333421350000023    0.4166568819999981    0.5388641360000008 F F F Zn
   0.8333421350000023    0.6666568520000027    0.5388641360000008 F F F Zn
   0.8333421350000023    0.9166568520000027    0.5388641360000008 F F F Zn
   0.1666567770000000    0.0833423509999989    0.4763641059999983 F F F Zn
   0.1666567770000000    0.3333423440000018    0.4763641059999983 F F F Zn
   0.1666567770000000    0.5833423730000008    0.4763641059999983 F F F Zn
   0.1666567770000001    0.8333423730000008    0.4763641059999983 F F F Zn
   0.4166567919999977    0.0833423509999989    0.4763641059999983 F F F Zn
   0.4166567919999977    0.3333423440000018    0.4763641059999983 F F F Zn
   0.4166567919999977    0.5833423730000008    0.4763641059999983 F F F Zn
   0.4166567919999978    0.8333423730000008    0.4763641059999983 F F F Zn
   0.6666567919999976    0.0833423509999989    0.4763641059999983 F F F Zn
   0.6666567919999976    0.3333423440000018    0.4763641059999983 F F F Zn
   0.6666567919999977    0.5833423730000008    0.4763641059999983 F F F Zn
   0.6666567919999977    0.8333423730000008    0.4763641059999983 F F F Zn
   0.9166567919999977    0.0833423509999989    0.4763641059999983 F F F Zn
   0.9166567919999977    0.3333423440000018    0.4763641059999983 F F F Zn
   0.9166567919999977    0.5833423730000008    0.4763641059999983 F F F Zn
   0.9166567919999977    0.8333423730000008    0.4763641059999983 F F F Zn
   0.0826244608249694    0.1667446128515620    0.6600423993906225 T T T Zn
   0.0844577538698736    0.4190647701158582    0.6612908218521019 T T T Zn
   0.0848571858970303    0.6651388265702889    0.6601203537236630 T T T Zn
   0.0865132900426657    0.9239533214832775    0.6586008198162512 T T T Zn
   0.3607666041495670    0.2177622813133655    0.6564613815090204 T T T Zn
   0.3572373970360187    0.4200893705447276    0.6692601354038816 T T T Zn
   0.3557862666542725    0.6670891933409669    0.6730466779252025 T T T Zn
   0.3431270220367230    0.9256411414149185    0.6589542556574367 T T T Zn
   0.5887497997367531    0.1692133155952889    0.6601835047697973 T T T Zn
   0.5827190075897609    0.4273245060255058    0.6695727136763384 T T T Zn
   0.5857083980912685    0.6634917137521597    0.6647125790779438 T T T Zn
   0.5798232162181270    0.8921663911328825    0.6730281743872167 T T T Zn
   0.8318122340038537    0.1667010363277402    0.6615830802932673 T T T Zn
   0.8180859627032704    0.4351367935794834    0.6769256110205972 T T T Zn
   0.8205261748158548    0.6656349344377579    0.6705838257341369 T T T Zn
   0.8178085625875338    0.8941287651860911    0.6733778826378047 T T T Zn
   0.1691455358374475    0.0859311809512971    0.6016477685778423 T T T Zn
   0.1715008873486234    0.3367880791331995    0.6039126754065000 T T T Zn
   0.1728828598139586    0.5854588300540348    0.6043343741352047 T T T Zn
   0.1673176242606365    0.8321113272702763    0.6010912929151779 T T T Zn
   0.4193900763077872    0.0866239855893555    0.6017620883598460 T T T Zn
   0.4198216642774680    0.3373642083941129    0.6050944393502059 T T T Zn
   0.4177458411260792    0.5833000800075918    0.6010560383694148 T T T Zn
   0.4201145632083735    0.8311615942457101    0.6037707153178523 T T T Zn
   0.6652265010444968    0.0778671426913027    0.6043344125797171 T T T Zn
   0.6683135233152846    0.3375516342925424    0.6037176085668354 T T T Zn
   0.6675596511133733    0.5834210318468268    0.5993537999148962 T T T Zn
   0.6680125344164962    0.8333807044814211    0.6013001402436955 T T T Zn
   0.9132913502457274    0.0788047004882012    0.6044764648405055 T T T Zn
   0.9143330235737935    0.3363950889089146    0.6052468195879648 T T T Zn
   0.9136667957511700    0.5821780228086054    0.6041846687882150 T T T Zn
   0.9127439634507661    0.8305359165320161    0.6035200510274165 T T T Zn
   0.0833223240000009    0.1666771619999992    0.3361358940000017 F F F O
   0.0833223240000009    0.4166771769999968    0.3361358940000017 F F F O
   0.0833223240000009    0.6666771769999970    0.3361358940000017 F F F O
   0.0833223240000009    0.9166771769999970    0.3361358940000017 F F F O
   0.3333223160000003    0.1666771619999992    0.3361358940000017 F F F O
   0.3333223160000002    0.4166771769999968    0.3361358940000017 F F F O
   0.3333223160000003    0.6666771769999970    0.3361358940000017 F F F O
   0.3333223160000003    0.9166771769999970    0.3361358940000017 F F F O
   0.5833223460000027    0.1666771619999992    0.3361358940000017 F F F O
   0.5833223460000028    0.4166771769999968    0.3361358940000017 F F F O
   0.5833223460000028    0.6666771769999970    0.3361358940000017 F F F O
   0.5833223460000028    0.9166771769999970    0.3361358940000017 F F F O
   0.8333223460000028    0.1666771619999992    0.3361358940000017 F F F O
   0.8333223460000028    0.4166771769999968    0.3361358940000017 F F F O
   0.8333223460000028    0.6666771769999970    0.3361358940000017 F F F O
   0.8333223460000028    0.9166771769999970    0.3361358940000017 F F F O
   0.1666769979999998    0.0833223759999981    0.3986358940000017 F F F O
   0.1666769979999998    0.3333223759999981    0.3986358940000017 F F F O
   0.1666769979999998    0.5833224060000006    0.3986358940000017 F F F O
   0.1666769979999998    0.8333224060000007    0.3986358940000017 F F F O
   0.4166769979999998    0.0833223759999981    0.3986358940000017 F F F O
   0.4166769979999998    0.3333223759999981    0.3986358940000017 F F F O
   0.4166769979999998    0.5833224060000006    0.3986358940000017 F F F O
   0.4166769979999999    0.8333224060000007    0.3986358940000017 F F F O
   0.6666769979999998    0.0833223759999981    0.3986358940000017 F F F O
   0.6666769979999998    0.3333223759999981    0.3986358940000017 F F F O
   0.6666769979999998    0.5833224060000006    0.3986358940000017 F F F O
   0.6666769979999999    0.8333224060000007    0.3986358940000017 F F F O
   0.9166769979999998    0.0833223759999981    0.3986358940000017 F F F O
   0.9166769979999998    0.3333223759999981    0.3986358940000017 F F F O
   0.9166769979999998    0.5833224060000006    0.3986358940000017 F F F O
   0.9166769979999998    0.8333224060000007    0.3986358940000017 F F F O
   0.0833221970000011    0.1666770730000025    0.4611358940000017 F F F O
   0.0833221970000011    0.4166770579999978    0.4611358940000017 F F F O
   0.0833221970000011    0.6666770579999977    0.4611358940000017 F F F O
   0.0833221970000010    0.9166770579999978    0.4611358940000017 F F F O
   0.3333221970000011    0.1666770730000025    0.4611358940000017 F F F O
   0.3333221970000011    0.4166770579999978    0.4611358940000017 F F F O
   0.3333221970000011    0.6666770579999977    0.4611358940000017 F F F O
   0.3333221970000010    0.9166770579999978    0.4611358940000017 F F F O
   0.5833221669999986    0.1666770730000025    0.4611358940000017 F F F O
   0.5833221669999986    0.4166770579999978    0.4611358940000017 F F F O
   0.5833221669999986    0.6666770579999977    0.4611358940000017 F F F O
   0.5833221669999986    0.9166770579999978    0.4611358940000017 F F F O
   0.8333221669999986    0.1666770730000025    0.4611358940000017 F F F O
   0.8333221669999985    0.4166770579999978    0.4611358940000017 F F F O
   0.8333221669999986    0.6666770579999977    0.4611358940000017 F F F O
   0.8333221669999986    0.9166770579999978    0.4611358940000017 F F F O
   0.1666768790000006    0.0833222870000014    0.5236359239999970 F F F O
   0.1666768790000006    0.3333222870000014    0.5236359239999970 F F F O
   0.1666768790000006    0.5833222870000014    0.5236359239999970 F F F O
   0.1666768790000006    0.8333222870000014    0.5236359239999970 F F F O
   0.4166768790000006    0.0833222870000014    0.5236359239999970 F F F O
   0.4166768790000006    0.3333222870000014    0.5236359239999970 F F F O
   0.4166768790000006    0.5833222870000014    0.5236359239999970 F F F O
   0.4166768790000006    0.8333222870000014    0.5236359239999970 F F F O
   0.6666768790000007    0.0833222870000014    0.5236359239999970 F F F O
   0.6666768790000006    0.3333222870000014    0.5236359239999970 F F F O
   0.6666768790000006    0.5833222870000014    0.5236359239999970 F F F O
   0.6666768790000006    0.8333222870000014    0.5236359239999970 F F F O
   0.9166768790000006    0.0833222870000014    0.5236359239999970 F F F O
   0.9166768790000006    0.3333222870000014    0.5236359239999970 F F F O
   0.9166768790000005    0.5833222870000014    0.5236359239999970 F F F O
   0.9166768790000006    0.8333222870000014    0.5236359239999970 F F F O
   0.0820340868014679    0.1677606885879209    0.5885991001252099 T T T O
   0.0830291580303987    0.4167456288223181    0.5890282818615845 T T T O
   0.0839930985163816    0.6641942632444642    0.5880314016250353 T T T O
   0.0841465829665166    0.9176492110798391    0.5877835980148316 T T T O
   0.3351130312950025    0.1686413057929275    0.5868247173927944 T T T O
   0.3337019735737444    0.4133357065862295    0.5864906773959617 T T T O
   0.3336887461221883    0.6678077908623350    0.5862868265722668 T T T O
   0.3358891483179701    0.9179908261450355    0.5877796152791922 T T T O
   0.5870830553895958    0.1672165967344471    0.5880753518555764 T T T O
   0.5802829708091272    0.4128106658945075    0.5861015656657739 T T T O
   0.5834366228044472    0.6676415965144064    0.5852637160930630 T T T O
   0.5833247260373284    0.9172182074217283    0.5862784553606151 T T T O
   0.8340207422767144    0.1677187296970293    0.5891760514049837 T T T O
   0.8334833790022182    0.4172327410632414    0.5870605463036990 T T T O
   0.8373775102779570    0.6681307598974525    0.5859061703011494 T T T O
   0.8367306910558987    0.9182494897502651    0.5863057255995359 T T T O
   0.1813588051522699    0.0949778208636991    0.6526876083178135 T T T O
   0.1760032794022872    0.3377408972643102    0.6546656083985730 T T T O
   0.1811893142670677    0.5904877327164977    0.6552683544179941 T T T O
   0.1715105717779233    0.8376275391900797    0.6526576673816034 T T T O
   0.4163947120363898    0.0960904045900863    0.6528994508092317 T T T O
   0.4120673135387434    0.5747293114555131    0.6468445146249105 T T T O
   0.4175252229701868    0.8335930853789473    0.6514659231363208 T T T O
   0.6597632663081822    0.0700773195001084    0.6556354229139170 T T T O
   0.6615676775637517    0.3357578573326901    0.6515154752322069 T T T O
   0.6661848725823953    0.5807387793196532    0.6447886488268396 T T T O
   0.6702100161430968    0.8354024680930549    0.6471274328210930 T T T O
   0.9121153175154363    0.0737426746387468    0.6556652174480486 T T T O
   0.9113729281650857    0.3396445535139788    0.6564803175746036 T T T O
   0.9183317097344659    0.5898139938109209    0.6518859079895620 T T T O
   0.9199052194011273    0.8344090158001731    0.6511827687538768 T T T O
   0.0833225029999980    0.1666775050000027    0.3114693160000002 F F F H
   0.0833225029999980    0.4166775050000028    0.3114693160000002 F F F H
   0.0833225029999980    0.6666774750000002    0.3114693160000002 F F F H
   0.0833225029999980    0.9166774750000002    0.3114693160000002 F F F H
   0.3333224949999973    0.1666775050000027    0.3114693160000002 F F F H
   0.3333224949999972    0.4166775050000028    0.3114693160000002 F F F H
   0.3333224949999972    0.6666774750000002    0.3114693160000002 F F F H
   0.3333224949999973    0.9166774750000002    0.3114693160000002 F F F H
   0.5833225249999998    0.1666775050000027    0.3114693160000002 F F F H
   0.5833225249999998    0.4166775050000028    0.3114693160000002 F F F H
   0.5833225249999998    0.6666774750000002    0.3114693160000002 F F F H
   0.5833225249999998    0.9166774750000002    0.3114693160000002 F F F H
   0.8333225249999998    0.1666775050000027    0.3114693160000002 F F F H
   0.8333225249999998    0.4166775050000028    0.3114693160000002 F F F H
   0.8333225249999998    0.6666774750000002    0.3114693160000002 F F F H
   0.8333225249999998    0.9166774750000002    0.3114693160000002 F F F H
   0.5093565113996837    0.5136487637265921    0.7126252684767614 T T T Pt
   0.7247391386488393    0.5200316958593008    0.7163828568243263 T T T Pt
   0.5158349784150069    0.7281604406372197    0.7154139050659584 T T T Pt
   0.7270721152202048    0.7331267302437777    0.7154953113380689 T T T Pt
   0.4558349784150069    0.3281604406372197    0.7231790152388488 T T T O
   0.4204537608708482    0.3673661983710427    0.7350782512865488 T T T H
   0.5393532032352967    0.3698611411796674    0.7295999539133589 T T T H
