Zn96 H16 Pt4 O96                        
    1.000000000000000     
    12.9159910000000000    0.0000000000000000    0.0000000000000000
    -6.4575310000000004   11.1858439999999995    0.0000000000000000
     0.0000000000000000    0.0000000000000000   41.8715669999999989
   Zn   O    H    O 
    96    96    16     1
Selective dynamics
Direct
  0.0829752808494802  0.1670242845837474  0.4126084647681967   T   T   T
  0.0831806287318873  0.4165987651517138  0.4125878404682119   T   T   T
  0.0829769525074841  0.6659663957522065  0.4126088454390354   T   T   T
  0.0831899146922696  0.9166012099046449  0.4126523306366518   T   T   T
  0.3333990679333300  0.1668085656009091  0.4126530367964941   T   T   T
  0.3331278360501574  0.4160231973268307  0.4128697599364987   T   T   T
  0.3331284734558841  0.6671233994434270  0.4128691628596084   T   T   T
  0.3333958661330908  0.9166056608735427  0.4126531843997016   T   T   T
  0.5840328000040266  0.1670219311791769  0.4126088082309163   T   T   T
  0.5828826679834302  0.4160221150214577  0.4128696467433761   T   T   T
  0.5833274789502565  0.6666694892361608  0.4134706098914587   T   T   T
  0.5828775228850702  0.9168726405274984  0.4128690016290701   T   T   T
  0.8333997342787878  0.1668194997311033  0.4125875079591915   T   T   T
  0.8333991535855604  0.4165975959664313  0.4125879151035883   T   T   T
  0.8339762691987790  0.6671173732784932  0.4128701481402274   T   T   T
  0.8339763284619295  0.9168721616336472  0.4128701714136277   T   T   T
  0.1666444269547915  0.0833586477703579  0.3478491039500828   T   T   T
  0.1661694302342104  0.3325128858343855  0.3474904140145797   T   T   T
  0.1661619294431365  0.5836613466250020  0.3474889791521690   T   T   T
  0.1666450214672909  0.8332899081969207  0.3478485324228155   T   T   T
  0.4167106704772906  0.0833588930108446  0.3478478738954309   T   T   T
  0.4156693174662187  0.3313402538572518  0.3475792804063594   T   T   T
  0.4002024551520351  0.5751032518244905  0.3495098887678078   T   T   T
  0.4156695355569880  0.8343287583515511  0.3475774996439769   T   T   T
  0.6663392462614307  0.0838425717472996  0.3474879651525195   T   T   T
  0.6663394035677724  0.3325026648670031  0.3474887046303681   T   T   T
  0.6748993735306351  0.5751029001585169  0.3495092412831180   T   T   T
  0.6748894454553379  0.8497936873330946  0.3495094057121708   T   T   T
  0.9174936101416695  0.0838339147020543  0.3474901772805180   T   T   T
  0.9166627012577024  0.3333355116703254  0.3475481510062488   T   T   T
  0.9174943203440039  0.5836642030044584  0.3474898039163455   T   T   T
  0.9186561549212126  0.8343352852740303  0.3475818330435670   T   T   T
  0.0833420000000018  0.1666570000000007  0.5388639999999967   F   F   F
  0.0833420000000018  0.4166570000000007  0.5388639999999967   F   F   F
  0.0833420000000018  0.6666570000000007  0.5388639999999967   F   F   F
  0.0833420000000018  0.9166570000000007  0.5388639999999967   F   F   F
  0.3333420000000018  0.1666570000000007  0.5388639999999967   F   F   F
  0.3333420000000018  0.4166570000000007  0.5388639999999967   F   F   F
  0.3333420000000018  0.6666570000000007  0.5388639999999967   F   F   F
  0.3333420000000018  0.9166570000000007  0.5388639999999967   F   F   F
  0.5833420000000018  0.1666570000000007  0.5388639999999967   F   F   F
  0.5833420000000018  0.4166570000000007  0.5388639999999967   F   F   F
  0.5833420000000018  0.6666570000000007  0.5388639999999967   F   F   F
  0.5833420000000018  0.9166570000000007  0.5388639999999967   F   F   F
  0.8333420000000018  0.1666570000000007  0.5388639999999967   F   F   F
  0.8333420000000018  0.4166570000000007  0.5388639999999967   F   F   F
  0.8333420000000018  0.6666570000000007  0.5388639999999967   F   F   F
  0.8333420000000018  0.9166570000000007  0.5388639999999967   F   F   F
  0.1666570000000007  0.0833420000000018  0.4763639999999967   F   F   F
  0.1666570000000007  0.3333420000000018  0.4763639999999967   F   F   F
  0.1666570000000007  0.5833420000000018  0.4763639999999967   F   F   F
  0.1666570000000007  0.8333420000000018  0.4763639999999967   F   F   F
  0.4166570000000007  0.0833420000000018  0.4763639999999967   F   F   F
  0.4166570000000007  0.3333420000000018  0.4763639999999967   F   F   F
  0.4166570000000007  0.5833420000000018  0.4763639999999967   F   F   F
  0.4166570000000007  0.8333420000000018  0.4763639999999967   F   F   F
  0.6666570000000007  0.0833420000000018  0.4763639999999967   F   F   F
  0.6666570000000007  0.3333420000000018  0.4763639999999967   F   F   F
  0.6666570000000007  0.5833420000000018  0.4763639999999967   F   F   F
  0.6666570000000007  0.8333420000000018  0.4763639999999967   F   F   F
  0.9166570000000007  0.0833420000000018  0.4763639999999967   F   F   F
  0.9166570000000007  0.3333420000000018  0.4763639999999967   F   F   F
  0.9166570000000007  0.5833420000000018  0.4763639999999967   F   F   F
  0.9166570000000007  0.8333420000000018  0.4763639999999967   F   F   F
  0.0833420000000018  0.1666570000000007  0.6638639999999967   F   F   F
  0.0833420000000018  0.4166570000000007  0.6638639999999967   F   F   F
  0.0833420000000018  0.6666570000000007  0.6638639999999967   F   F   F
  0.0833420000000018  0.9166570000000007  0.6638639999999967   F   F   F
  0.3333420000000018  0.1666570000000007  0.6638639999999967   F   F   F
  0.3333420000000018  0.4166570000000007  0.6638639999999967   F   F   F
  0.3333420000000018  0.6666570000000007  0.6638639999999967   F   F   F
  0.3333420000000018  0.9166570000000007  0.6638639999999967   F   F   F
  0.5833420000000018  0.1666570000000007  0.6638639999999967   F   F   F
  0.5833420000000018  0.4166570000000007  0.6638639999999967   F   F   F
  0.5833420000000018  0.6666570000000007  0.6638639999999967   F   F   F
  0.5833420000000018  0.9166570000000007  0.6638639999999967   F   F   F
  0.8333420000000018  0.1666570000000007  0.6638639999999967   F   F   F
  0.8333420000000018  0.4166570000000007  0.6638639999999967   F   F   F
  0.8333420000000018  0.6666570000000007  0.6638639999999967   F   F   F
  0.8333420000000018  0.9166570000000007  0.6638639999999967   F   F   F
  0.1666570000000007  0.0833420000000018  0.6013639999999967   F   F   F
  0.1666570000000007  0.3333420000000018  0.6013639999999967   F   F   F
  0.1666570000000007  0.5833420000000018  0.6013639999999967   F   F   F
  0.1666570000000007  0.8333420000000018  0.6013639999999967   F   F   F
  0.4166570000000007  0.0833420000000018  0.6013639999999967   F   F   F
  0.4166570000000007  0.3333420000000018  0.6013639999999967   F   F   F
  0.4166570000000007  0.5833420000000018  0.6013639999999967   F   F   F
  0.4166570000000007  0.8333420000000018  0.6013639999999967   F   F   F
  0.6666570000000007  0.0833420000000018  0.6013639999999967   F   F   F
  0.6666570000000007  0.3333420000000018  0.6013639999999967   F   F   F
  0.6666570000000007  0.5833420000000018  0.6013639999999967   F   F   F
  0.6666570000000007  0.8333420000000018  0.6013639999999967   F   F   F
  0.9166570000000007  0.0833420000000018  0.6013639999999967   F   F   F
  0.9166570000000007  0.3333420000000018  0.6013639999999967   F   F   F
  0.9166570000000007  0.5833420000000018  0.6013639999999967   F   F   F
  0.9166570000000007  0.8333420000000018  0.6013639999999967   F   F   F
  0.0836903629973149  0.1663039383482641  0.3385007833119983   T   T   T
  0.0835613049242073  0.4167884707210151  0.3387013958123430   T   T   T
  0.0836888104564631  0.6673966872549491  0.3384991943244569   T   T   T
  0.0847150416548181  0.9173659429681261  0.3387286567796267   T   T   T
  0.3326320500325795  0.1652826308891588  0.3387243212125334   T   T   T
  0.3332392505370684  0.4147270700632364  0.3376274048465206   T   T   T
  0.3332426210872711  0.6685215280561582  0.3376261817634742   T   T   T
  0.3326230661443745  0.9173665016706515  0.3387233930790755   T   T   T
  0.5826066652148274  0.1663102449601252  0.3384973613500489   T   T   T
  0.5814961340209088  0.4147439825543805  0.3376266548381792   T   T   T
  0.5833282371532305  0.6666722597004231  0.3310780466408081   T   T   T
  0.5814893331836083  0.9167567977425743  0.3376265932156420   T   T   T
  0.8332143566991302  0.1664432528051107  0.3387017902687970   T   T   T
  0.8332158920611866  0.4167862310913743  0.3387029618562249   T   T   T
  0.8352619161478945  0.6685091169318634  0.3376248755231880   T   T   T
  0.8352652562758118  0.9167666784511508  0.3376250707418593   T   T   T
  0.1665352328409808  0.0834657028598027  0.3983466354262086   T   T   T
  0.1672559664306402  0.3338647503538791  0.3981022477478731   T   T   T
  0.1672558019079644  0.5833988136312821  0.3981015582413075   T   T   T
  0.1665333485742472  0.8330766958502550  0.3983468187273395   T   T   T
  0.4169234486397695  0.0834669564645502  0.3983465630210312   T   T   T
  0.4168772779358674  0.3337607760939393  0.3980736082434175   T   T   T
  0.4184614719864508  0.5842359265143455  0.3975068254075123   T   T   T
  0.4168754556406877  0.8331258032565475  0.3980697785896063   T   T   T
  0.6665994620630792  0.0827441240776693  0.3981012438152011   T   T   T
  0.6665980636880960  0.3338606267405562  0.3981016269833522   T   T   T
  0.6657656667077549  0.5842321794598573  0.3975059902573591   T   T   T
  0.6657632940735955  0.8315369522792357  0.3975066440286877   T   T   T
  0.9161349012944162  0.0827424588093879  0.3981020779529285   T   T   T
  0.9166646696339067  0.3333356123601336  0.3981964115360626   T   T   T
  0.9161363793704904  0.5834009270576073  0.3981017762565561   T   T   T
  0.9162360458273366  0.8331213700167270  0.3980740698792903   T   T   T
  0.0833220000000026  0.1666770000000000  0.4611360000000033   F   F   F
  0.0833220000000026  0.4166770000000000  0.4611360000000033   F   F   F
  0.0833220000000026  0.6666770000000000  0.4611360000000033   F   F   F
  0.0833220000000026  0.9166770000000000  0.4611360000000033   F   F   F
  0.3333220000000026  0.1666770000000000  0.4611360000000033   F   F   F
  0.3333220000000026  0.4166770000000000  0.4611360000000033   F   F   F
  0.3333220000000026  0.6666770000000000  0.4611360000000033   F   F   F
  0.3333220000000026  0.9166770000000000  0.4611360000000033   F   F   F
  0.5833220000000026  0.1666770000000000  0.4611360000000033   F   F   F
  0.5833220000000026  0.4166770000000000  0.4611360000000033   F   F   F
  0.5833220000000026  0.6666770000000000  0.4611360000000033   F   F   F
  0.5833220000000026  0.9166770000000000  0.4611360000000033   F   F   F
  0.8333220000000026  0.1666770000000000  0.4611360000000033   F   F   F
  0.8333220000000026  0.4166770000000000  0.4611360000000033   F   F   F
  0.8333220000000026  0.6666770000000000  0.4611360000000033   F   F   F
  0.8333220000000026  0.9166770000000000  0.4611360000000033   F   F   F
  0.1666770000000000  0.0833220000000026  0.5236360000000033   F   F   F
  0.1666770000000000  0.3333220000000026  0.5236360000000033   F   F   F
  0.1666770000000000  0.5833220000000026  0.5236360000000033   F   F   F
  0.1666770000000000  0.8333220000000026  0.5236360000000033   F   F   F
  0.4166770000000000  0.0833220000000026  0.5236360000000033   F   F   F
  0.4166770000000000  0.3333220000000026  0.5236360000000033   F   F   F
  0.4166770000000000  0.5833220000000026  0.5236360000000033   F   F   F
  0.4166770000000000  0.8333220000000026  0.5236360000000033   F   F   F
  0.6666770000000000  0.0833220000000026  0.5236360000000033   F   F   F
  0.6666770000000000  0.3333220000000026  0.5236360000000033   F   F   F
  0.6666770000000000  0.5833220000000026  0.5236360000000033   F   F   F
  0.6666770000000000  0.8333220000000026  0.5236360000000033   F   F   F
  0.9166770000000000  0.0833220000000026  0.5236360000000033   F   F   F
  0.9166770000000000  0.3333220000000026  0.5236360000000033   F   F   F
  0.9166770000000000  0.5833220000000026  0.5236360000000033   F   F   F
  0.9166770000000000  0.8333220000000026  0.5236360000000033   F   F   F
  0.0833220000000026  0.1666770000000000  0.5861360000000033   F   F   F
  0.0833220000000026  0.4166770000000000  0.5861360000000033   F   F   F
  0.0833220000000026  0.6666770000000000  0.5861360000000033   F   F   F
  0.0833220000000026  0.9166770000000000  0.5861360000000033   F   F   F
  0.3333220000000026  0.1666770000000000  0.5861360000000033   F   F   F
  0.3333220000000026  0.4166770000000000  0.5861360000000033   F   F   F
  0.3333220000000026  0.6666770000000000  0.5861360000000033   F   F   F
  0.3333220000000026  0.9166770000000000  0.5861360000000033   F   F   F
  0.5833220000000026  0.1666770000000000  0.5861360000000033   F   F   F
  0.5833220000000026  0.4166770000000000  0.5861360000000033   F   F   F
  0.5833220000000026  0.6666770000000000  0.5861360000000033   F   F   F
  0.5833220000000026  0.9166770000000000  0.5861360000000033   F   F   F
  0.8333220000000026  0.1666770000000000  0.5861360000000033   F   F   F
  0.8333220000000026  0.4166770000000000  0.5861360000000033   F   F   F
  0.8333220000000026  0.6666770000000000  0.5861360000000033   F   F   F
  0.8333220000000026  0.9166770000000000  0.5861360000000033   F   F   F
  0.1666770000000000  0.0833220000000026  0.6486360000000033   F   F   F
  0.1666770000000000  0.3333220000000026  0.6486360000000033   F   F   F
  0.1666770000000000  0.5833220000000026  0.6486360000000033   F   F   F
  0.1666770000000000  0.8333220000000026  0.6486360000000033   F   F   F
  0.4166770000000000  0.0833220000000026  0.6486360000000033   F   F   F
  0.4166770000000000  0.3333220000000026  0.6486360000000033   F   F   F
  0.4166770000000000  0.5833220000000026  0.6486360000000033   F   F   F
  0.4166770000000000  0.8333220000000026  0.6486360000000033   F   F   F
  0.6666770000000000  0.0833220000000026  0.6486360000000033   F   F   F
  0.6666770000000000  0.3333220000000026  0.6486360000000033   F   F   F
  0.6666770000000000  0.5833220000000026  0.6486360000000033   F   F   F
  0.6666770000000000  0.8333220000000026  0.6486360000000033   F   F   F
  0.9166770000000000  0.0833220000000026  0.6486360000000033   F   F   F
  0.9166770000000000  0.3333220000000026  0.6486360000000033   F   F   F
  0.9166770000000000  0.5833220000000026  0.6486360000000033   F   F   F
  0.9166770000000000  0.8333220000000026  0.6486360000000033   F   F   F
  0.0833420000000018  0.1666579999999982  0.7015940000000001   F   F   F
  0.0833420000000018  0.4166579999999982  0.7015940000000001   F   F   F
  0.0833420000000018  0.6666579999999982  0.7015940000000001   F   F   F
  0.0833420000000018  0.9166579999999982  0.7015940000000001   F   F   F
  0.3333420000000018  0.1666579999999982  0.7015940000000001   F   F   F
  0.3333420000000018  0.4166579999999982  0.7015940000000001   F   F   F
  0.3333420000000018  0.6666579999999982  0.7015940000000001   F   F   F
  0.3333420000000018  0.9166579999999982  0.7015940000000001   F   F   F
  0.5833420000000018  0.1666579999999982  0.7015940000000001   F   F   F
  0.5833420000000018  0.4166579999999982  0.7015940000000001   F   F   F
  0.5833420000000018  0.6666579999999982  0.7015940000000001   F   F   F
  0.5833420000000018  0.9166579999999982  0.7015940000000001   F   F   F
  0.8333420000000018  0.1666579999999982  0.7015940000000001   F   F   F
  0.8333420000000018  0.4166579999999982  0.7015940000000001   F   F   F
  0.8333420000000018  0.6666579999999982  0.7015940000000001   F   F   F
  0.8333420000000018  0.9166579999999982  0.7015940000000001   F   F   F
  0.5833305391140440  0.6666708747834368  0.2994555708276599   T   T   T
 
  0.00000000E+00  0.00000000E+00  0.00000000E+00
  0.00000000E+00  0.00000000E+00  0.00000000E+00
  0.00000000E+00  0.00000000E+00  0.00000000E+00
  0.00000000E+00  0.00000000E+00  0.00000000E+00
  0.00000000E+00  0.00000000E+00  0.00000000E+00
  0.00000000E+00  0.00000000E+00  0.00000000E+00
  0.00000000E+00  0.00000000E+00  0.00000000E+00
  0.00000000E+00  0.00000000E+00  0.00000000E+00
  0.00000000E+00  0.00000000E+00  0.00000000E+00
  0.00000000E+00  0.00000000E+00  0.00000000E+00
  0.00000000E+00  0.00000000E+00  0.00000000E+00
  0.00000000E+00  0.00000000E+00  0.00000000E+00
  0.00000000E+00  0.00000000E+00  0.00000000E+00
  0.00000000E+00  0.00000000E+00  0.00000000E+00
  0.00000000E+00  0.00000000E+00  0.00000000E+00
  0.00000000E+00  0.00000000E+00  0.00000000E+00
  0.00000000E+00  0.00000000E+00  0.00000000E+00
  0.00000000E+00  0.00000000E+00  0.00000000E+00
  0.00000000E+00  0.00000000E+00  0.00000000E+00
  0.00000000E+00  0.00000000E+00  0.00000000E+00
  0.00000000E+00  0.00000000E+00  0.00000000E+00
  0.00000000E+00  0.00000000E+00  0.00000000E+00
  0.00000000E+00  0.00000000E+00  0.00000000E+00
  0.00000000E+00  0.00000000E+00  0.00000000E+00
  0.00000000E+00  0.00000000E+00  0.00000000E+00
  0.00000000E+00  0.00000000E+00  0.00000000E+00
  0.00000000E+00  0.00000000E+00  0.00000000E+00
  0.00000000E+00  0.00000000E+00  0.00000000E+00
  0.00000000E+00  0.00000000E+00  0.00000000E+00
  0.00000000E+00  0.00000000E+00  0.00000000E+00
  0.00000000E+00  0.00000000E+00  0.00000000E+00
  0.00000000E+00  0.00000000E+00  0.00000000E+00
  0.00000000E+00  0.00000000E+00  0.00000000E+00
  0.00000000E+00  0.00000000E+00  0.00000000E+00
  0.00000000E+00  0.00000000E+00  0.00000000E+00
  0.00000000E+00  0.00000000E+00  0.00000000E+00
  0.00000000E+00  0.00000000E+00  0.00000000E+00
  0.00000000E+00  0.00000000E+00  0.00000000E+00
  0.00000000E+00  0.00000000E+00  0.00000000E+00
  0.00000000E+00  0.00000000E+00  0.00000000E+00
  0.00000000E+00  0.00000000E+00  0.00000000E+00
  0.00000000E+00  0.00000000E+00  0.00000000E+00
  0.00000000E+00  0.00000000E+00  0.00000000E+00
  0.00000000E+00  0.00000000E+00  0.00000000E+00
  0.00000000E+00  0.00000000E+00  0.00000000E+00
  0.00000000E+00  0.00000000E+00  0.00000000E+00
  0.00000000E+00  0.00000000E+00  0.00000000E+00
  0.00000000E+00  0.00000000E+00  0.00000000E+00
  0.00000000E+00  0.00000000E+00  0.00000000E+00
  0.00000000E+00  0.00000000E+00  0.00000000E+00
  0.00000000E+00  0.00000000E+00  0.00000000E+00
  0.00000000E+00  0.00000000E+00  0.00000000E+00
  0.00000000E+00  0.00000000E+00  0.00000000E+00
  0.00000000E+00  0.00000000E+00  0.00000000E+00
  0.00000000E+00  0.00000000E+00  0.00000000E+00
  0.00000000E+00  0.00000000E+00  0.00000000E+00
  0.00000000E+00  0.00000000E+00  0.00000000E+00
  0.00000000E+00  0.00000000E+00  0.00000000E+00
  0.00000000E+00  0.00000000E+00  0.00000000E+00
  0.00000000E+00  0.00000000E+00  0.00000000E+00
  0.00000000E+00  0.00000000E+00  0.00000000E+00
  0.00000000E+00  0.00000000E+00  0.00000000E+00
  0.00000000E+00  0.00000000E+00  0.00000000E+00
  0.00000000E+00  0.00000000E+00  0.00000000E+00
  0.00000000E+00  0.00000000E+00  0.00000000E+00
  0.00000000E+00  0.00000000E+00  0.00000000E+00
  0.00000000E+00  0.00000000E+00  0.00000000E+00
  0.00000000E+00  0.00000000E+00  0.00000000E+00
  0.00000000E+00  0.00000000E+00  0.00000000E+00
  0.00000000E+00  0.00000000E+00  0.00000000E+00
  0.00000000E+00  0.00000000E+00  0.00000000E+00
  0.00000000E+00  0.00000000E+00  0.00000000E+00
  0.00000000E+00  0.00000000E+00  0.00000000E+00
  0.00000000E+00  0.00000000E+00  0.00000000E+00
  0.00000000E+00  0.00000000E+00  0.00000000E+00
  0.00000000E+00  0.00000000E+00  0.00000000E+00
  0.00000000E+00  0.00000000E+00  0.00000000E+00
  0.00000000E+00  0.00000000E+00  0.00000000E+00
  0.00000000E+00  0.00000000E+00  0.00000000E+00
  0.00000000E+00  0.00000000E+00  0.00000000E+00
  0.00000000E+00  0.00000000E+00  0.00000000E+00
  0.00000000E+00  0.00000000E+00  0.00000000E+00
  0.00000000E+00  0.00000000E+00  0.00000000E+00
  0.00000000E+00  0.00000000E+00  0.00000000E+00
  0.00000000E+00  0.00000000E+00  0.00000000E+00
  0.00000000E+00  0.00000000E+00  0.00000000E+00
  0.00000000E+00  0.00000000E+00  0.00000000E+00
  0.00000000E+00  0.00000000E+00  0.00000000E+00
  0.00000000E+00  0.00000000E+00  0.00000000E+00
  0.00000000E+00  0.00000000E+00  0.00000000E+00
  0.00000000E+00  0.00000000E+00  0.00000000E+00
  0.00000000E+00  0.00000000E+00  0.00000000E+00
  0.00000000E+00  0.00000000E+00  0.00000000E+00
  0.00000000E+00  0.00000000E+00  0.00000000E+00
  0.00000000E+00  0.00000000E+00  0.00000000E+00
  0.00000000E+00  0.00000000E+00  0.00000000E+00
  0.00000000E+00  0.00000000E+00  0.00000000E+00
  0.00000000E+00  0.00000000E+00  0.00000000E+00
  0.00000000E+00  0.00000000E+00  0.00000000E+00
  0.00000000E+00  0.00000000E+00  0.00000000E+00
  0.00000000E+00  0.00000000E+00  0.00000000E+00
  0.00000000E+00  0.00000000E+00  0.00000000E+00
  0.00000000E+00  0.00000000E+00  0.00000000E+00
  0.00000000E+00  0.00000000E+00  0.00000000E+00
  0.00000000E+00  0.00000000E+00  0.00000000E+00
  0.00000000E+00  0.00000000E+00  0.00000000E+00
  0.00000000E+00  0.00000000E+00  0.00000000E+00
  0.00000000E+00  0.00000000E+00  0.00000000E+00
  0.00000000E+00  0.00000000E+00  0.00000000E+00
  0.00000000E+00  0.00000000E+00  0.00000000E+00
  0.00000000E+00  0.00000000E+00  0.00000000E+00
  0.00000000E+00  0.00000000E+00  0.00000000E+00
  0.00000000E+00  0.00000000E+00  0.00000000E+00
  0.00000000E+00  0.00000000E+00  0.00000000E+00
  0.00000000E+00  0.00000000E+00  0.00000000E+00
  0.00000000E+00  0.00000000E+00  0.00000000E+00
  0.00000000E+00  0.00000000E+00  0.00000000E+00
  0.00000000E+00  0.00000000E+00  0.00000000E+00
  0.00000000E+00  0.00000000E+00  0.00000000E+00
  0.00000000E+00  0.00000000E+00  0.00000000E+00
  0.00000000E+00  0.00000000E+00  0.00000000E+00
  0.00000000E+00  0.00000000E+00  0.00000000E+00
  0.00000000E+00  0.00000000E+00  0.00000000E+00
  0.00000000E+00  0.00000000E+00  0.00000000E+00
  0.00000000E+00  0.00000000E+00  0.00000000E+00
  0.00000000E+00  0.00000000E+00  0.00000000E+00
  0.00000000E+00  0.00000000E+00  0.00000000E+00
  0.00000000E+00  0.00000000E+00  0.00000000E+00
  0.00000000E+00  0.00000000E+00  0.00000000E+00
  0.00000000E+00  0.00000000E+00  0.00000000E+00
  0.00000000E+00  0.00000000E+00  0.00000000E+00
  0.00000000E+00  0.00000000E+00  0.00000000E+00
  0.00000000E+00  0.00000000E+00  0.00000000E+00
  0.00000000E+00  0.00000000E+00  0.00000000E+00
  0.00000000E+00  0.00000000E+00  0.00000000E+00
  0.00000000E+00  0.00000000E+00  0.00000000E+00
  0.00000000E+00  0.00000000E+00  0.00000000E+00
  0.00000000E+00  0.00000000E+00  0.00000000E+00
  0.00000000E+00  0.00000000E+00  0.00000000E+00
  0.00000000E+00  0.00000000E+00  0.00000000E+00
  0.00000000E+00  0.00000000E+00  0.00000000E+00
  0.00000000E+00  0.00000000E+00  0.00000000E+00
  0.00000000E+00  0.00000000E+00  0.00000000E+00
  0.00000000E+00  0.00000000E+00  0.00000000E+00
  0.00000000E+00  0.00000000E+00  0.00000000E+00
  0.00000000E+00  0.00000000E+00  0.00000000E+00
  0.00000000E+00  0.00000000E+00  0.00000000E+00
  0.00000000E+00  0.00000000E+00  0.00000000E+00
  0.00000000E+00  0.00000000E+00  0.00000000E+00
  0.00000000E+00  0.00000000E+00  0.00000000E+00
  0.00000000E+00  0.00000000E+00  0.00000000E+00
  0.00000000E+00  0.00000000E+00  0.00000000E+00
  0.00000000E+00  0.00000000E+00  0.00000000E+00
  0.00000000E+00  0.00000000E+00  0.00000000E+00
  0.00000000E+00  0.00000000E+00  0.00000000E+00
  0.00000000E+00  0.00000000E+00  0.00000000E+00
  0.00000000E+00  0.00000000E+00  0.00000000E+00
  0.00000000E+00  0.00000000E+00  0.00000000E+00
  0.00000000E+00  0.00000000E+00  0.00000000E+00
  0.00000000E+00  0.00000000E+00  0.00000000E+00
  0.00000000E+00  0.00000000E+00  0.00000000E+00
  0.00000000E+00  0.00000000E+00  0.00000000E+00
  0.00000000E+00  0.00000000E+00  0.00000000E+00
  0.00000000E+00  0.00000000E+00  0.00000000E+00
  0.00000000E+00  0.00000000E+00  0.00000000E+00
  0.00000000E+00  0.00000000E+00  0.00000000E+00
  0.00000000E+00  0.00000000E+00  0.00000000E+00
  0.00000000E+00  0.00000000E+00  0.00000000E+00
  0.00000000E+00  0.00000000E+00  0.00000000E+00
  0.00000000E+00  0.00000000E+00  0.00000000E+00
  0.00000000E+00  0.00000000E+00  0.00000000E+00
  0.00000000E+00  0.00000000E+00  0.00000000E+00
  0.00000000E+00  0.00000000E+00  0.00000000E+00
  0.00000000E+00  0.00000000E+00  0.00000000E+00
  0.00000000E+00  0.00000000E+00  0.00000000E+00
  0.00000000E+00  0.00000000E+00  0.00000000E+00
  0.00000000E+00  0.00000000E+00  0.00000000E+00
  0.00000000E+00  0.00000000E+00  0.00000000E+00
  0.00000000E+00  0.00000000E+00  0.00000000E+00
  0.00000000E+00  0.00000000E+00  0.00000000E+00
  0.00000000E+00  0.00000000E+00  0.00000000E+00
  0.00000000E+00  0.00000000E+00  0.00000000E+00
  0.00000000E+00  0.00000000E+00  0.00000000E+00
  0.00000000E+00  0.00000000E+00  0.00000000E+00
  0.00000000E+00  0.00000000E+00  0.00000000E+00
  0.00000000E+00  0.00000000E+00  0.00000000E+00
  0.00000000E+00  0.00000000E+00  0.00000000E+00
  0.00000000E+00  0.00000000E+00  0.00000000E+00
  0.00000000E+00  0.00000000E+00  0.00000000E+00
  0.00000000E+00  0.00000000E+00  0.00000000E+00
  0.00000000E+00  0.00000000E+00  0.00000000E+00
  0.00000000E+00  0.00000000E+00  0.00000000E+00
  0.00000000E+00  0.00000000E+00  0.00000000E+00
  0.00000000E+00  0.00000000E+00  0.00000000E+00
  0.00000000E+00  0.00000000E+00  0.00000000E+00
  0.00000000E+00  0.00000000E+00  0.00000000E+00
  0.00000000E+00  0.00000000E+00  0.00000000E+00
  0.00000000E+00  0.00000000E+00  0.00000000E+00
  0.00000000E+00  0.00000000E+00  0.00000000E+00
  0.00000000E+00  0.00000000E+00  0.00000000E+00
  0.00000000E+00  0.00000000E+00  0.00000000E+00
  0.00000000E+00  0.00000000E+00  0.00000000E+00
  0.00000000E+00  0.00000000E+00  0.00000000E+00
  0.00000000E+00  0.00000000E+00  0.00000000E+00
  0.00000000E+00  0.00000000E+00  0.00000000E+00
  0.00000000E+00  0.00000000E+00  0.00000000E+00
  0.00000000E+00  0.00000000E+00  0.00000000E+00
  0.00000000E+00  0.00000000E+00  0.00000000E+00
  0.00000000E+00  0.00000000E+00  0.00000000E+00
