Zn96 H16 Pt4 O96                        
    1.000000000000000     
    12.9159908295000001    0.0000000000000000    0.0000000000000000
    -6.4575307008999996   11.1858444632000005    0.0000000000000000
     0.0000000000000000    0.0000000000000000   41.8715667725000031
   Zn   O    H    Pt
    96    96    16     4
Selective dynamics
Direct
  0.0833422689999992  0.1666569710000019  0.4138641059999983   F   F   F
  0.0833422689999992  0.4166569710000019  0.4138641059999983   F   F   F
  0.0833422689999992  0.6666569710000019  0.4138641059999983   F   F   F
  0.0833422689999992  0.9166569710000019  0.4138641059999983   F   F   F
  0.3333422540000015  0.1666569710000019  0.4138641059999983   F   F   F
  0.3333422540000015  0.4166569710000019  0.4138641059999983   F   F   F
  0.3333422540000015  0.6666569710000019  0.4138641059999983   F   F   F
  0.3333422540000015  0.9166569710000019  0.4138641059999983   F   F   F
  0.5833422540000015  0.1666569710000019  0.4138641059999983   F   F   F
  0.5833422540000015  0.4166569710000019  0.4138641059999983   F   F   F
  0.5833422540000015  0.6666569710000019  0.4138641059999983   F   F   F
  0.5833422540000015  0.9166569710000019  0.4138641059999983   F   F   F
  0.8333422540000015  0.1666569710000019  0.4138641059999983   F   F   F
  0.8333422540000015  0.4166569710000019  0.4138641059999983   F   F   F
  0.8333422540000015  0.6666569710000019  0.4138641059999983   F   F   F
  0.8333422540000015  0.9166569710000019  0.4138641059999983   F   F   F
  0.1666568959999992  0.0833424400000027  0.3513641059999983   F   F   F
  0.1666568959999992  0.3333424329999986  0.3513641059999983   F   F   F
  0.1666568959999992  0.5833424329999986  0.3513641059999983   F   F   F
  0.1666568959999992  0.8333424329999986  0.3513641059999983   F   F   F
  0.4166569109999969  0.0833424400000027  0.3513641059999983   F   F   F
  0.4166569109999969  0.3333424329999986  0.3513641059999983   F   F   F
  0.4166569109999969  0.5833424329999986  0.3513641059999983   F   F   F
  0.4166569109999969  0.8333424329999986  0.3513641059999983   F   F   F
  0.6666569109999969  0.0833424400000027  0.3513641059999983   F   F   F
  0.6666569109999969  0.3333424329999986  0.3513641059999983   F   F   F
  0.6666569109999969  0.5833424329999986  0.3513641059999983   F   F   F
  0.6666569109999969  0.8333424329999986  0.3513641059999983   F   F   F
  0.9166569109999969  0.0833424400000027  0.3513641059999983   F   F   F
  0.9166569109999969  0.3333424329999986  0.3513641059999983   F   F   F
  0.9166569109999969  0.5833424329999986  0.3513641059999983   F   F   F
  0.9166569109999969  0.8333424329999986  0.3513641059999983   F   F   F
  0.0833421419999993  0.1666568819999981  0.5388641360000008   F   F   F
  0.0833421419999993  0.4166568819999981  0.5388641360000008   F   F   F
  0.0833421419999993  0.6666568520000027  0.5388641360000008   F   F   F
  0.0833421419999993  0.9166568520000027  0.5388641360000008   F   F   F
  0.3333421350000023  0.1666568819999981  0.5388641360000008   F   F   F
  0.3333421350000023  0.4166568819999981  0.5388641360000008   F   F   F
  0.3333421350000023  0.6666568520000027  0.5388641360000008   F   F   F
  0.3333421350000023  0.9166568520000027  0.5388641360000008   F   F   F
  0.5833421350000023  0.1666568819999981  0.5388641360000008   F   F   F
  0.5833421350000023  0.4166568819999981  0.5388641360000008   F   F   F
  0.5833421350000023  0.6666568520000027  0.5388641360000008   F   F   F
  0.5833421350000023  0.9166568520000027  0.5388641360000008   F   F   F
  0.8333421350000023  0.1666568819999981  0.5388641360000008   F   F   F
  0.8333421350000023  0.4166568819999981  0.5388641360000008   F   F   F
  0.8333421350000023  0.6666568520000027  0.5388641360000008   F   F   F
  0.8333421350000023  0.9166568520000027  0.5388641360000008   F   F   F
  0.1666567770000000  0.0833423509999989  0.4763641059999983   F   F   F
  0.1666567770000000  0.3333423440000018  0.4763641059999983   F   F   F
  0.1666567770000000  0.5833423730000007  0.4763641059999983   F   F   F
  0.1666567770000000  0.8333423730000007  0.4763641059999983   F   F   F
  0.4166567919999977  0.0833423509999989  0.4763641059999983   F   F   F
  0.4166567919999977  0.3333423440000018  0.4763641059999983   F   F   F
  0.4166567919999977  0.5833423730000007  0.4763641059999983   F   F   F
  0.4166567919999977  0.8333423730000007  0.4763641059999983   F   F   F
  0.6666567919999977  0.0833423509999989  0.4763641059999983   F   F   F
  0.6666567919999977  0.3333423440000018  0.4763641059999983   F   F   F
  0.6666567919999977  0.5833423730000007  0.4763641059999983   F   F   F
  0.6666567919999977  0.8333423730000007  0.4763641059999983   F   F   F
  0.9166567919999977  0.0833423509999989  0.4763641059999983   F   F   F
  0.9166567919999977  0.3333423440000018  0.4763641059999983   F   F   F
  0.9166567919999977  0.5833423730000007  0.4763641059999983   F   F   F
  0.9166567919999977  0.8333423730000007  0.4763641059999983   F   F   F
  0.0761708872934079  0.1649713013991558  0.6606561342826822   T   T   T
  0.0773911635717326  0.4149477959493169  0.6613909096738766   T   T   T
  0.0748756925940341  0.6559890788655380  0.6603423005902087   T   T   T
  0.0715351249631766  0.9078320758480416  0.6594407844615446   T   T   T
  0.3330157949758785  0.1688251714262279  0.6590242417244099   T   T   T
  0.3472292783833169  0.4277395345337851  0.6733749674997114   T   T   T
  0.3501483169492587  0.6640580547935571  0.6734569468802221   T   T   T
  0.3331987307689843  0.9081235253032531  0.6596540880204103   T   T   T
  0.5856514115515736  0.1657033389917828  0.6602176594720035   T   T   T
  0.5777549489672680  0.4274305133754694  0.6710001334959443   T   T   T
  0.5794044176866393  0.6601297568212416  0.6655731510496707   T   T   T
  0.5759989806653536  0.8893010188523931  0.6735600146238525   T   T   T
  0.8261222142549869  0.1634251859337539  0.6616141035487004   T   T   T
  0.8082636433010180  0.4326751525435668  0.6777915153621734   T   T   T
  0.8122082707724729  0.6623513267648491  0.6708918176564325   T   T   T
  0.8126794943416300  0.8931218162617895  0.6733908618908444   T   T   T
  0.1628669134018708  0.0818575493154512  0.6010581008005929   T   T   T
  0.1681561007069377  0.3353016541377940  0.6045679455135797   T   T   T
  0.1693497889030127  0.5831319706425404  0.6043579463632653   T   T   T
  0.1630099128845330  0.8290367523790749  0.6011504986004255   T   T   T
  0.4162293970953854  0.0820005967180464  0.6010322218930000   T   T   T
  0.4178924201769902  0.3378620444198859  0.6029106031847746   T   T   T
  0.4144474862581902  0.5807397728879522  0.6016437578965252   T   T   T
  0.4173313940841652  0.8275281935612568  0.6032646875187666   T   T   T
  0.6618690283120188  0.0753940746986572  0.6044761284249560   T   T   T
  0.6657789138829102  0.3357481725767713  0.6043874718160041   T   T   T
  0.6636108849055233  0.5810195243714986  0.5999885141750880   T   T   T
  0.6638261450343492  0.8302340537068815  0.6016986419621517   T   T   T
  0.9095322409961426  0.0765018355469564  0.6046296640617044   T   T   T
  0.9104718480704932  0.3337837344007184  0.6053165922856749   T   T   T
  0.9092634947198732  0.5792132145764413  0.6042871396404337   T   T   T
  0.9070664452231085  0.8268742142776233  0.6029095466401770   T   T   T
  0.0833223240000009  0.1666771619999992  0.3361358940000017   F   F   F
  0.0833223240000009  0.4166771769999968  0.3361358940000017   F   F   F
  0.0833223240000009  0.6666771769999968  0.3361358940000017   F   F   F
  0.0833223240000009  0.9166771769999968  0.3361358940000017   F   F   F
  0.3333223160000003  0.1666771619999992  0.3361358940000017   F   F   F
  0.3333223160000003  0.4166771769999968  0.3361358940000017   F   F   F
  0.3333223160000003  0.6666771769999968  0.3361358940000017   F   F   F
  0.3333223160000003  0.9166771769999968  0.3361358940000017   F   F   F
  0.5833223460000028  0.1666771619999992  0.3361358940000017   F   F   F
  0.5833223460000028  0.4166771769999968  0.3361358940000017   F   F   F
  0.5833223460000028  0.6666771769999968  0.3361358940000017   F   F   F
  0.5833223460000028  0.9166771769999968  0.3361358940000017   F   F   F
  0.8333223460000028  0.1666771619999992  0.3361358940000017   F   F   F
  0.8333223460000028  0.4166771769999968  0.3361358940000017   F   F   F
  0.8333223460000028  0.6666771769999968  0.3361358940000017   F   F   F
  0.8333223460000028  0.9166771769999968  0.3361358940000017   F   F   F
  0.1666769979999998  0.0833223759999981  0.3986358940000017   F   F   F
  0.1666769979999998  0.3333223759999981  0.3986358940000017   F   F   F
  0.1666769979999998  0.5833224060000006  0.3986358940000017   F   F   F
  0.1666769979999998  0.8333224060000006  0.3986358940000017   F   F   F
  0.4166769979999998  0.0833223759999981  0.3986358940000017   F   F   F
  0.4166769979999998  0.3333223759999981  0.3986358940000017   F   F   F
  0.4166769979999998  0.5833224060000006  0.3986358940000017   F   F   F
  0.4166769979999998  0.8333224060000006  0.3986358940000017   F   F   F
  0.6666769979999998  0.0833223759999981  0.3986358940000017   F   F   F
  0.6666769979999998  0.3333223759999981  0.3986358940000017   F   F   F
  0.6666769979999998  0.5833224060000006  0.3986358940000017   F   F   F
  0.6666769979999998  0.8333224060000006  0.3986358940000017   F   F   F
  0.9166769979999998  0.0833223759999981  0.3986358940000017   F   F   F
  0.9166769979999998  0.3333223759999981  0.3986358940000017   F   F   F
  0.9166769979999998  0.5833224060000006  0.3986358940000017   F   F   F
  0.9166769979999998  0.8333224060000006  0.3986358940000017   F   F   F
  0.0833221970000011  0.1666770730000025  0.4611358940000017   F   F   F
  0.0833221970000011  0.4166770579999977  0.4611358940000017   F   F   F
  0.0833221970000011  0.6666770579999977  0.4611358940000017   F   F   F
  0.0833221970000011  0.9166770579999977  0.4611358940000017   F   F   F
  0.3333221970000011  0.1666770730000025  0.4611358940000017   F   F   F
  0.3333221970000011  0.4166770579999977  0.4611358940000017   F   F   F
  0.3333221970000011  0.6666770579999977  0.4611358940000017   F   F   F
  0.3333221970000011  0.9166770579999977  0.4611358940000017   F   F   F
  0.5833221669999986  0.1666770730000025  0.4611358940000017   F   F   F
  0.5833221669999986  0.4166770579999977  0.4611358940000017   F   F   F
  0.5833221669999986  0.6666770579999977  0.4611358940000017   F   F   F
  0.5833221669999986  0.9166770579999977  0.4611358940000017   F   F   F
  0.8333221669999986  0.1666770730000025  0.4611358940000017   F   F   F
  0.8333221669999986  0.4166770579999977  0.4611358940000017   F   F   F
  0.8333221669999986  0.6666770579999977  0.4611358940000017   F   F   F
  0.8333221669999986  0.9166770579999977  0.4611358940000017   F   F   F
  0.1666768790000006  0.0833222870000014  0.5236359239999970   F   F   F
  0.1666768790000006  0.3333222870000014  0.5236359239999970   F   F   F
  0.1666768790000006  0.5833222870000014  0.5236359239999970   F   F   F
  0.1666768790000006  0.8333222870000014  0.5236359239999970   F   F   F
  0.4166768790000006  0.0833222870000014  0.5236359239999970   F   F   F
  0.4166768790000006  0.3333222870000014  0.5236359239999970   F   F   F
  0.4166768790000006  0.5833222870000014  0.5236359239999970   F   F   F
  0.4166768790000006  0.8333222870000014  0.5236359239999970   F   F   F
  0.6666768790000006  0.0833222870000014  0.5236359239999970   F   F   F
  0.6666768790000006  0.3333222870000014  0.5236359239999970   F   F   F
  0.6666768790000006  0.5833222870000014  0.5236359239999970   F   F   F
  0.6666768790000006  0.8333222870000014  0.5236359239999970   F   F   F
  0.9166768790000006  0.0833222870000014  0.5236359239999970   F   F   F
  0.9166768790000006  0.3333222870000014  0.5236359239999970   F   F   F
  0.9166768790000006  0.5833222870000014  0.5236359239999970   F   F   F
  0.9166768790000006  0.8333222870000014  0.5236359239999970   F   F   F
  0.0785363527950977  0.1663524401185299  0.5887430586359272   T   T   T
  0.0792177331780408  0.4144436733692913  0.5892056479017995   T   T   T
  0.0797728988586925  0.6612827465313345  0.5881403900102242   T   T   T
  0.0793986152787340  0.9137766105484602  0.5876742730160558   T   T   T
  0.3311347920019827  0.1654106320375988  0.5877106211962229   T   T   T
  0.3284167859521858  0.4122097414638404  0.5861655828771859   T   T   T
  0.3297497002875929  0.6643773273534208  0.5861573655627694   T   T   T
  0.3314599594625562  0.9135301208952313  0.5876976252994552   T   T   T
  0.5842589033479726  0.1653629143287603  0.5881633983969579   T   T   T
  0.5803047724357953  0.4115706105299211  0.5857521569404156   T   T   T
  0.5796999797560005  0.6650264954213867  0.5852725548854778   T   T   T
  0.5805956414187889  0.9153340252687130  0.5861790049713917   T   T   T
  0.8305294381757093  0.1654517381245100  0.5892036798846050   T   T   T
  0.8302456474158930  0.4147903416583176  0.5870671743783689   T   T   T
  0.8329586791716750  0.6644658817461604  0.5857773012859582   T   T   T
  0.8324587345793262  0.9162689324914339  0.5862426160887466   T   T   T
  0.1618407388820700  0.0788829220702638  0.6530808287839207   T   T   T
  0.1705627342041254  0.3351472085008709  0.6556078649548738   T   T   T
  0.1749845303389819  0.5863683562484638  0.6554544675705642   T   T   T
  0.1631287310041358  0.8293251692702270  0.6530687151812131   T   T   T
  0.4125220938203498  0.0781743213386150  0.6528923189366793   T   T   T
  0.4137409832382701  0.3330436256203058  0.6504145194377671   T   T   T
  0.4082184065518746  0.5757351705594047  0.6473338194732392   T   T   T
  0.4149068832103993  0.8257322292826004  0.6508271936715886   T   T   T
  0.6547876545881408  0.0651358204969341  0.6555757728452676   T   T   T
  0.6563476458583963  0.3311156900528118  0.6521187454621824   T   T   T
  0.6605321764379113  0.5791126389215719  0.6453213209798392   T   T   T
  0.6645064441596489  0.8315895135265379  0.6474374890547168   T   T   T
  0.9060805024234639  0.0705040933511611  0.6556156299433766   T   T   T
  0.9051311210179804  0.3354909309456104  0.6564555274334865   T   T   T
  0.9094856209604032  0.5850241353438435  0.6520894461836875   T   T   T
  0.9077073632632633  0.8270398128928846  0.6504978200764242   T   T   T
  0.0833225029999980  0.1666775050000027  0.3114693160000002   F   F   F
  0.0833225029999980  0.4166775050000027  0.3114693160000002   F   F   F
  0.0833225029999980  0.6666774750000002  0.3114693160000002   F   F   F
  0.0833225029999980  0.9166774750000002  0.3114693160000002   F   F   F
  0.3333224949999973  0.1666775050000027  0.3114693160000002   F   F   F
  0.3333224949999973  0.4166775050000027  0.3114693160000002   F   F   F
  0.3333224949999973  0.6666774750000002  0.3114693160000002   F   F   F
  0.3333224949999973  0.9166774750000002  0.3114693160000002   F   F   F
  0.5833225249999998  0.1666775050000027  0.3114693160000002   F   F   F
  0.5833225249999998  0.4166775050000027  0.3114693160000002   F   F   F
  0.5833225249999998  0.6666774750000002  0.3114693160000002   F   F   F
  0.5833225249999998  0.9166774750000002  0.3114693160000002   F   F   F
  0.8333225249999998  0.1666775050000027  0.3114693160000002   F   F   F
  0.8333225249999998  0.4166775050000027  0.3114693160000002   F   F   F
  0.8333225249999998  0.6666774750000002  0.3114693160000002   F   F   F
  0.8333225249999998  0.9166774750000002  0.3114693160000002   F   F   F
  0.5046756297165729  0.5177749024437759  0.7159723703775427   T   T   T
  0.7185653508196310  0.5218500664959436  0.7174883631865043   T   T   T
  0.5101143402226782  0.7285926170573447  0.7166071572446668   T   T   T
  0.7211841028822406  0.7349243582151317  0.7158311591942947   T   T   T
 
  0.00000000E+00  0.00000000E+00  0.00000000E+00
  0.00000000E+00  0.00000000E+00  0.00000000E+00
  0.00000000E+00  0.00000000E+00  0.00000000E+00
  0.00000000E+00  0.00000000E+00  0.00000000E+00
  0.00000000E+00  0.00000000E+00  0.00000000E+00
  0.00000000E+00  0.00000000E+00  0.00000000E+00
  0.00000000E+00  0.00000000E+00  0.00000000E+00
  0.00000000E+00  0.00000000E+00  0.00000000E+00
  0.00000000E+00  0.00000000E+00  0.00000000E+00
  0.00000000E+00  0.00000000E+00  0.00000000E+00
  0.00000000E+00  0.00000000E+00  0.00000000E+00
  0.00000000E+00  0.00000000E+00  0.00000000E+00
  0.00000000E+00  0.00000000E+00  0.00000000E+00
  0.00000000E+00  0.00000000E+00  0.00000000E+00
  0.00000000E+00  0.00000000E+00  0.00000000E+00
  0.00000000E+00  0.00000000E+00  0.00000000E+00
  0.00000000E+00  0.00000000E+00  0.00000000E+00
  0.00000000E+00  0.00000000E+00  0.00000000E+00
  0.00000000E+00  0.00000000E+00  0.00000000E+00
  0.00000000E+00  0.00000000E+00  0.00000000E+00
  0.00000000E+00  0.00000000E+00  0.00000000E+00
  0.00000000E+00  0.00000000E+00  0.00000000E+00
  0.00000000E+00  0.00000000E+00  0.00000000E+00
  0.00000000E+00  0.00000000E+00  0.00000000E+00
  0.00000000E+00  0.00000000E+00  0.00000000E+00
  0.00000000E+00  0.00000000E+00  0.00000000E+00
  0.00000000E+00  0.00000000E+00  0.00000000E+00
  0.00000000E+00  0.00000000E+00  0.00000000E+00
  0.00000000E+00  0.00000000E+00  0.00000000E+00
  0.00000000E+00  0.00000000E+00  0.00000000E+00
  0.00000000E+00  0.00000000E+00  0.00000000E+00
  0.00000000E+00  0.00000000E+00  0.00000000E+00
  0.00000000E+00  0.00000000E+00  0.00000000E+00
  0.00000000E+00  0.00000000E+00  0.00000000E+00
  0.00000000E+00  0.00000000E+00  0.00000000E+00
  0.00000000E+00  0.00000000E+00  0.00000000E+00
  0.00000000E+00  0.00000000E+00  0.00000000E+00
  0.00000000E+00  0.00000000E+00  0.00000000E+00
  0.00000000E+00  0.00000000E+00  0.00000000E+00
  0.00000000E+00  0.00000000E+00  0.00000000E+00
  0.00000000E+00  0.00000000E+00  0.00000000E+00
  0.00000000E+00  0.00000000E+00  0.00000000E+00
  0.00000000E+00  0.00000000E+00  0.00000000E+00
  0.00000000E+00  0.00000000E+00  0.00000000E+00
  0.00000000E+00  0.00000000E+00  0.00000000E+00
  0.00000000E+00  0.00000000E+00  0.00000000E+00
  0.00000000E+00  0.00000000E+00  0.00000000E+00
  0.00000000E+00  0.00000000E+00  0.00000000E+00
  0.00000000E+00  0.00000000E+00  0.00000000E+00
  0.00000000E+00  0.00000000E+00  0.00000000E+00
  0.00000000E+00  0.00000000E+00  0.00000000E+00
  0.00000000E+00  0.00000000E+00  0.00000000E+00
  0.00000000E+00  0.00000000E+00  0.00000000E+00
  0.00000000E+00  0.00000000E+00  0.00000000E+00
  0.00000000E+00  0.00000000E+00  0.00000000E+00
  0.00000000E+00  0.00000000E+00  0.00000000E+00
  0.00000000E+00  0.00000000E+00  0.00000000E+00
  0.00000000E+00  0.00000000E+00  0.00000000E+00
  0.00000000E+00  0.00000000E+00  0.00000000E+00
  0.00000000E+00  0.00000000E+00  0.00000000E+00
  0.00000000E+00  0.00000000E+00  0.00000000E+00
  0.00000000E+00  0.00000000E+00  0.00000000E+00
  0.00000000E+00  0.00000000E+00  0.00000000E+00
  0.00000000E+00  0.00000000E+00  0.00000000E+00
  0.00000000E+00  0.00000000E+00  0.00000000E+00
  0.00000000E+00  0.00000000E+00  0.00000000E+00
  0.00000000E+00  0.00000000E+00  0.00000000E+00
  0.00000000E+00  0.00000000E+00  0.00000000E+00
  0.00000000E+00  0.00000000E+00  0.00000000E+00
  0.00000000E+00  0.00000000E+00  0.00000000E+00
  0.00000000E+00  0.00000000E+00  0.00000000E+00
  0.00000000E+00  0.00000000E+00  0.00000000E+00
  0.00000000E+00  0.00000000E+00  0.00000000E+00
  0.00000000E+00  0.00000000E+00  0.00000000E+00
  0.00000000E+00  0.00000000E+00  0.00000000E+00
  0.00000000E+00  0.00000000E+00  0.00000000E+00
  0.00000000E+00  0.00000000E+00  0.00000000E+00
  0.00000000E+00  0.00000000E+00  0.00000000E+00
  0.00000000E+00  0.00000000E+00  0.00000000E+00
  0.00000000E+00  0.00000000E+00  0.00000000E+00
  0.00000000E+00  0.00000000E+00  0.00000000E+00
  0.00000000E+00  0.00000000E+00  0.00000000E+00
  0.00000000E+00  0.00000000E+00  0.00000000E+00
  0.00000000E+00  0.00000000E+00  0.00000000E+00
  0.00000000E+00  0.00000000E+00  0.00000000E+00
  0.00000000E+00  0.00000000E+00  0.00000000E+00
  0.00000000E+00  0.00000000E+00  0.00000000E+00
  0.00000000E+00  0.00000000E+00  0.00000000E+00
  0.00000000E+00  0.00000000E+00  0.00000000E+00
  0.00000000E+00  0.00000000E+00  0.00000000E+00
  0.00000000E+00  0.00000000E+00  0.00000000E+00
  0.00000000E+00  0.00000000E+00  0.00000000E+00
  0.00000000E+00  0.00000000E+00  0.00000000E+00
  0.00000000E+00  0.00000000E+00  0.00000000E+00
  0.00000000E+00  0.00000000E+00  0.00000000E+00
  0.00000000E+00  0.00000000E+00  0.00000000E+00
  0.00000000E+00  0.00000000E+00  0.00000000E+00
  0.00000000E+00  0.00000000E+00  0.00000000E+00
  0.00000000E+00  0.00000000E+00  0.00000000E+00
  0.00000000E+00  0.00000000E+00  0.00000000E+00
  0.00000000E+00  0.00000000E+00  0.00000000E+00
  0.00000000E+00  0.00000000E+00  0.00000000E+00
  0.00000000E+00  0.00000000E+00  0.00000000E+00
  0.00000000E+00  0.00000000E+00  0.00000000E+00
  0.00000000E+00  0.00000000E+00  0.00000000E+00
  0.00000000E+00  0.00000000E+00  0.00000000E+00
  0.00000000E+00  0.00000000E+00  0.00000000E+00
  0.00000000E+00  0.00000000E+00  0.00000000E+00
  0.00000000E+00  0.00000000E+00  0.00000000E+00
  0.00000000E+00  0.00000000E+00  0.00000000E+00
  0.00000000E+00  0.00000000E+00  0.00000000E+00
  0.00000000E+00  0.00000000E+00  0.00000000E+00
  0.00000000E+00  0.00000000E+00  0.00000000E+00
  0.00000000E+00  0.00000000E+00  0.00000000E+00
  0.00000000E+00  0.00000000E+00  0.00000000E+00
  0.00000000E+00  0.00000000E+00  0.00000000E+00
  0.00000000E+00  0.00000000E+00  0.00000000E+00
  0.00000000E+00  0.00000000E+00  0.00000000E+00
  0.00000000E+00  0.00000000E+00  0.00000000E+00
  0.00000000E+00  0.00000000E+00  0.00000000E+00
  0.00000000E+00  0.00000000E+00  0.00000000E+00
  0.00000000E+00  0.00000000E+00  0.00000000E+00
  0.00000000E+00  0.00000000E+00  0.00000000E+00
  0.00000000E+00  0.00000000E+00  0.00000000E+00
  0.00000000E+00  0.00000000E+00  0.00000000E+00
  0.00000000E+00  0.00000000E+00  0.00000000E+00
  0.00000000E+00  0.00000000E+00  0.00000000E+00
  0.00000000E+00  0.00000000E+00  0.00000000E+00
  0.00000000E+00  0.00000000E+00  0.00000000E+00
  0.00000000E+00  0.00000000E+00  0.00000000E+00
  0.00000000E+00  0.00000000E+00  0.00000000E+00
  0.00000000E+00  0.00000000E+00  0.00000000E+00
  0.00000000E+00  0.00000000E+00  0.00000000E+00
  0.00000000E+00  0.00000000E+00  0.00000000E+00
  0.00000000E+00  0.00000000E+00  0.00000000E+00
  0.00000000E+00  0.00000000E+00  0.00000000E+00
  0.00000000E+00  0.00000000E+00  0.00000000E+00
  0.00000000E+00  0.00000000E+00  0.00000000E+00
  0.00000000E+00  0.00000000E+00  0.00000000E+00
  0.00000000E+00  0.00000000E+00  0.00000000E+00
  0.00000000E+00  0.00000000E+00  0.00000000E+00
  0.00000000E+00  0.00000000E+00  0.00000000E+00
  0.00000000E+00  0.00000000E+00  0.00000000E+00
  0.00000000E+00  0.00000000E+00  0.00000000E+00
  0.00000000E+00  0.00000000E+00  0.00000000E+00
  0.00000000E+00  0.00000000E+00  0.00000000E+00
  0.00000000E+00  0.00000000E+00  0.00000000E+00
  0.00000000E+00  0.00000000E+00  0.00000000E+00
  0.00000000E+00  0.00000000E+00  0.00000000E+00
  0.00000000E+00  0.00000000E+00  0.00000000E+00
  0.00000000E+00  0.00000000E+00  0.00000000E+00
  0.00000000E+00  0.00000000E+00  0.00000000E+00
  0.00000000E+00  0.00000000E+00  0.00000000E+00
  0.00000000E+00  0.00000000E+00  0.00000000E+00
  0.00000000E+00  0.00000000E+00  0.00000000E+00
  0.00000000E+00  0.00000000E+00  0.00000000E+00
  0.00000000E+00  0.00000000E+00  0.00000000E+00
  0.00000000E+00  0.00000000E+00  0.00000000E+00
  0.00000000E+00  0.00000000E+00  0.00000000E+00
  0.00000000E+00  0.00000000E+00  0.00000000E+00
  0.00000000E+00  0.00000000E+00  0.00000000E+00
  0.00000000E+00  0.00000000E+00  0.00000000E+00
  0.00000000E+00  0.00000000E+00  0.00000000E+00
  0.00000000E+00  0.00000000E+00  0.00000000E+00
  0.00000000E+00  0.00000000E+00  0.00000000E+00
  0.00000000E+00  0.00000000E+00  0.00000000E+00
  0.00000000E+00  0.00000000E+00  0.00000000E+00
  0.00000000E+00  0.00000000E+00  0.00000000E+00
  0.00000000E+00  0.00000000E+00  0.00000000E+00
  0.00000000E+00  0.00000000E+00  0.00000000E+00
  0.00000000E+00  0.00000000E+00  0.00000000E+00
  0.00000000E+00  0.00000000E+00  0.00000000E+00
  0.00000000E+00  0.00000000E+00  0.00000000E+00
  0.00000000E+00  0.00000000E+00  0.00000000E+00
  0.00000000E+00  0.00000000E+00  0.00000000E+00
  0.00000000E+00  0.00000000E+00  0.00000000E+00
  0.00000000E+00  0.00000000E+00  0.00000000E+00
  0.00000000E+00  0.00000000E+00  0.00000000E+00
  0.00000000E+00  0.00000000E+00  0.00000000E+00
  0.00000000E+00  0.00000000E+00  0.00000000E+00
  0.00000000E+00  0.00000000E+00  0.00000000E+00
  0.00000000E+00  0.00000000E+00  0.00000000E+00
  0.00000000E+00  0.00000000E+00  0.00000000E+00
  0.00000000E+00  0.00000000E+00  0.00000000E+00
  0.00000000E+00  0.00000000E+00  0.00000000E+00
  0.00000000E+00  0.00000000E+00  0.00000000E+00
  0.00000000E+00  0.00000000E+00  0.00000000E+00
  0.00000000E+00  0.00000000E+00  0.00000000E+00
  0.00000000E+00  0.00000000E+00  0.00000000E+00
  0.00000000E+00  0.00000000E+00  0.00000000E+00
  0.00000000E+00  0.00000000E+00  0.00000000E+00
  0.00000000E+00  0.00000000E+00  0.00000000E+00
  0.00000000E+00  0.00000000E+00  0.00000000E+00
  0.00000000E+00  0.00000000E+00  0.00000000E+00
  0.00000000E+00  0.00000000E+00  0.00000000E+00
  0.00000000E+00  0.00000000E+00  0.00000000E+00
  0.00000000E+00  0.00000000E+00  0.00000000E+00
  0.00000000E+00  0.00000000E+00  0.00000000E+00
  0.00000000E+00  0.00000000E+00  0.00000000E+00
  0.00000000E+00  0.00000000E+00  0.00000000E+00
  0.00000000E+00  0.00000000E+00  0.00000000E+00
  0.00000000E+00  0.00000000E+00  0.00000000E+00
  0.00000000E+00  0.00000000E+00  0.00000000E+00
  0.00000000E+00  0.00000000E+00  0.00000000E+00
  0.00000000E+00  0.00000000E+00  0.00000000E+00
  0.00000000E+00  0.00000000E+00  0.00000000E+00
  0.00000000E+00  0.00000000E+00  0.00000000E+00
  0.00000000E+00  0.00000000E+00  0.00000000E+00
  0.00000000E+00  0.00000000E+00  0.00000000E+00
  0.00000000E+00  0.00000000E+00  0.00000000E+00
  0.00000000E+00  0.00000000E+00  0.00000000E+00
  0.00000000E+00  0.00000000E+00  0.00000000E+00
