Zn96 H18 Pt4 O96                        
    1.000000000000000     
    12.9159908295000001    0.0000000000000000    0.0000000000000000
    -6.4575307008999996   11.1858444632000005    0.0000000000000000
     0.0000000000000000    0.0000000000000000   41.8715667725000031
   Zn   O    H    Pt   O    H 
    96    95    16     4     1     2
Selective dynamics
Direct
  0.0833422689999992  0.1666569710000019  0.4138641059999983   F   F   F
  0.0833422689999992  0.4166569710000019  0.4138641059999983   F   F   F
  0.0833422689999992  0.6666569710000019  0.4138641059999983   F   F   F
  0.0833422689999992  0.9166569710000019  0.4138641059999983   F   F   F
  0.3333422540000015  0.1666569710000019  0.4138641059999983   F   F   F
  0.3333422540000015  0.4166569710000019  0.4138641059999983   F   F   F
  0.3333422540000015  0.6666569710000019  0.4138641059999983   F   F   F
  0.3333422540000015  0.9166569710000019  0.4138641059999983   F   F   F
  0.5833422540000015  0.1666569710000019  0.4138641059999983   F   F   F
  0.5833422540000015  0.4166569710000019  0.4138641059999983   F   F   F
  0.5833422540000015  0.6666569710000019  0.4138641059999983   F   F   F
  0.5833422540000015  0.9166569710000019  0.4138641059999983   F   F   F
  0.8333422540000015  0.1666569710000019  0.4138641059999983   F   F   F
  0.8333422540000015  0.4166569710000019  0.4138641059999983   F   F   F
  0.8333422540000015  0.6666569710000019  0.4138641059999983   F   F   F
  0.8333422540000015  0.9166569710000019  0.4138641059999983   F   F   F
  0.1666568959999992  0.0833424400000027  0.3513641059999983   F   F   F
  0.1666568959999992  0.3333424329999986  0.3513641059999983   F   F   F
  0.1666568959999992  0.5833424329999986  0.3513641059999983   F   F   F
  0.1666568959999992  0.8333424329999986  0.3513641059999983   F   F   F
  0.4166569109999969  0.0833424400000027  0.3513641059999983   F   F   F
  0.4166569109999969  0.3333424329999986  0.3513641059999983   F   F   F
  0.4166569109999969  0.5833424329999986  0.3513641059999983   F   F   F
  0.4166569109999969  0.8333424329999986  0.3513641059999983   F   F   F
  0.6666569109999969  0.0833424400000027  0.3513641059999983   F   F   F
  0.6666569109999969  0.3333424329999986  0.3513641059999983   F   F   F
  0.6666569109999969  0.5833424329999986  0.3513641059999983   F   F   F
  0.6666569109999969  0.8333424329999986  0.3513641059999983   F   F   F
  0.9166569109999969  0.0833424400000027  0.3513641059999983   F   F   F
  0.9166569109999969  0.3333424329999986  0.3513641059999983   F   F   F
  0.9166569109999969  0.5833424329999986  0.3513641059999983   F   F   F
  0.9166569109999969  0.8333424329999986  0.3513641059999983   F   F   F
  0.0833421419999993  0.1666568819999981  0.5388641360000008   F   F   F
  0.0833421419999993  0.4166568819999981  0.5388641360000008   F   F   F
  0.0833421419999993  0.6666568520000027  0.5388641360000008   F   F   F
  0.0833421419999993  0.9166568520000027  0.5388641360000008   F   F   F
  0.3333421350000023  0.1666568819999981  0.5388641360000008   F   F   F
  0.3333421350000023  0.4166568819999981  0.5388641360000008   F   F   F
  0.3333421350000023  0.6666568520000027  0.5388641360000008   F   F   F
  0.3333421350000023  0.9166568520000027  0.5388641360000008   F   F   F
  0.5833421350000023  0.1666568819999981  0.5388641360000008   F   F   F
  0.5833421350000023  0.4166568819999981  0.5388641360000008   F   F   F
  0.5833421350000023  0.6666568520000027  0.5388641360000008   F   F   F
  0.5833421350000023  0.9166568520000027  0.5388641360000008   F   F   F
  0.8333421350000023  0.1666568819999981  0.5388641360000008   F   F   F
  0.8333421350000023  0.4166568819999981  0.5388641360000008   F   F   F
  0.8333421350000023  0.6666568520000027  0.5388641360000008   F   F   F
  0.8333421350000023  0.9166568520000027  0.5388641360000008   F   F   F
  0.1666567770000000  0.0833423509999989  0.4763641059999983   F   F   F
  0.1666567770000000  0.3333423440000018  0.4763641059999983   F   F   F
  0.1666567770000000  0.5833423730000007  0.4763641059999983   F   F   F
  0.1666567770000000  0.8333423730000007  0.4763641059999983   F   F   F
  0.4166567919999977  0.0833423509999989  0.4763641059999983   F   F   F
  0.4166567919999977  0.3333423440000018  0.4763641059999983   F   F   F
  0.4166567919999977  0.5833423730000007  0.4763641059999983   F   F   F
  0.4166567919999977  0.8333423730000007  0.4763641059999983   F   F   F
  0.6666567919999977  0.0833423509999989  0.4763641059999983   F   F   F
  0.6666567919999977  0.3333423440000018  0.4763641059999983   F   F   F
  0.6666567919999977  0.5833423730000007  0.4763641059999983   F   F   F
  0.6666567919999977  0.8333423730000007  0.4763641059999983   F   F   F
  0.9166567919999977  0.0833423509999989  0.4763641059999983   F   F   F
  0.9166567919999977  0.3333423440000018  0.4763641059999983   F   F   F
  0.9166567919999977  0.5833423730000007  0.4763641059999983   F   F   F
  0.9166567919999977  0.8333423730000007  0.4763641059999983   F   F   F
  0.0833856783952298  0.1677705554802590  0.6598507493042981   T   T   T
  0.0840751362339762  0.4190640564982526  0.6609313114056198   T   T   T
  0.0850165190730441  0.6660443153190302  0.6600480762235199   T   T   T
  0.0864154512981488  0.9248205567451742  0.6586976260148815   T   T   T
  0.3595605465764362  0.2142704918254659  0.6605779609857463   T   T   T
  0.3599584220431902  0.4210668946855216  0.6659146663184907   T   T   T
  0.3547722382623411  0.6670107457666381  0.6726793855969695   T   T   T
  0.3429819445704478  0.9257409300238668  0.6586852559699915   T   T   T
  0.5900081700679463  0.1702351814518663  0.6591165557113347   T   T   T
  0.5841433604821270  0.4305568336973926  0.6674624934079535   T   T   T
  0.5859379915526055  0.6652546768531801  0.6643420367816851   T   T   T
  0.5783026907756436  0.8918994808369147  0.6733604952180114   T   T   T
  0.8318344386083750  0.1658004437551613  0.6614951496076545   T   T   T
  0.8174970846591869  0.4334626594393006  0.6766915798151276   T   T   T
  0.8209836292169627  0.6652822617180973  0.6706682189199484   T   T   T
  0.8173967948221822  0.8930722878201349  0.6737393281548021   T   T   T
  0.1705767015038174  0.0872668221942362  0.6017879473261932   T   T   T
  0.1712616433059792  0.3369945743527644  0.6033258373173880   T   T   T
  0.1723204853784725  0.5859343453797183  0.6042271983475691   T   T   T
  0.1670971563601963  0.8331896669521545  0.6009977169550687   T   T   T
  0.4185864720984386  0.0875603943937731  0.6016781247114562   T   T   T
  0.4177649772554364  0.3351586301098047  0.6079749473818574   T   T   T
  0.4173091516085618  0.5827636250695207  0.6001906716487660   T   T   T
  0.4197521075133573  0.8313106296162844  0.6036227169480093   T   T   T
  0.6649583008648385  0.0777130922460158  0.6042333562414677   T   T   T
  0.6673358525897078  0.3380966629838141  0.6028442237395650   T   T   T
  0.6665617228905611  0.5827992023787933  0.5986716091601918   T   T   T
  0.6679758591355748  0.8340190240818498  0.6015536827801022   T   T   T
  0.9133560798816863  0.0785081411751564  0.6045614162988069   T   T   T
  0.9135786154170600  0.3361723318841319  0.6051560635693514   T   T   T
  0.9134378668222009  0.5824916487110690  0.6043145127733973   T   T   T
  0.9122513383901482  0.8304023411059541  0.6036629521774549   T   T   T
  0.0833223240000009  0.1666771619999992  0.3361358940000017   F   F   F
  0.0833223240000009  0.4166771769999968  0.3361358940000017   F   F   F
  0.0833223240000009  0.6666771769999968  0.3361358940000017   F   F   F
  0.0833223240000009  0.9166771769999968  0.3361358940000017   F   F   F
  0.3333223160000003  0.1666771619999992  0.3361358940000017   F   F   F
  0.3333223160000003  0.4166771769999968  0.3361358940000017   F   F   F
  0.3333223160000003  0.6666771769999968  0.3361358940000017   F   F   F
  0.3333223160000003  0.9166771769999968  0.3361358940000017   F   F   F
  0.5833223460000028  0.1666771619999992  0.3361358940000017   F   F   F
  0.5833223460000028  0.4166771769999968  0.3361358940000017   F   F   F
  0.5833223460000028  0.6666771769999968  0.3361358940000017   F   F   F
  0.5833223460000028  0.9166771769999968  0.3361358940000017   F   F   F
  0.8333223460000028  0.1666771619999992  0.3361358940000017   F   F   F
  0.8333223460000028  0.4166771769999968  0.3361358940000017   F   F   F
  0.8333223460000028  0.6666771769999968  0.3361358940000017   F   F   F
  0.8333223460000028  0.9166771769999968  0.3361358940000017   F   F   F
  0.1666769979999998  0.0833223759999981  0.3986358940000017   F   F   F
  0.1666769979999998  0.3333223759999981  0.3986358940000017   F   F   F
  0.1666769979999998  0.5833224060000006  0.3986358940000017   F   F   F
  0.1666769979999998  0.8333224060000006  0.3986358940000017   F   F   F
  0.4166769979999998  0.0833223759999981  0.3986358940000017   F   F   F
  0.4166769979999998  0.3333223759999981  0.3986358940000017   F   F   F
  0.4166769979999998  0.5833224060000006  0.3986358940000017   F   F   F
  0.4166769979999998  0.8333224060000006  0.3986358940000017   F   F   F
  0.6666769979999998  0.0833223759999981  0.3986358940000017   F   F   F
  0.6666769979999998  0.3333223759999981  0.3986358940000017   F   F   F
  0.6666769979999998  0.5833224060000006  0.3986358940000017   F   F   F
  0.6666769979999998  0.8333224060000006  0.3986358940000017   F   F   F
  0.9166769979999998  0.0833223759999981  0.3986358940000017   F   F   F
  0.9166769979999998  0.3333223759999981  0.3986358940000017   F   F   F
  0.9166769979999998  0.5833224060000006  0.3986358940000017   F   F   F
  0.9166769979999998  0.8333224060000006  0.3986358940000017   F   F   F
  0.0833221970000011  0.1666770730000025  0.4611358940000017   F   F   F
  0.0833221970000011  0.4166770579999977  0.4611358940000017   F   F   F
  0.0833221970000011  0.6666770579999977  0.4611358940000017   F   F   F
  0.0833221970000011  0.9166770579999977  0.4611358940000017   F   F   F
  0.3333221970000011  0.1666770730000025  0.4611358940000017   F   F   F
  0.3333221970000011  0.4166770579999977  0.4611358940000017   F   F   F
  0.3333221970000011  0.6666770579999977  0.4611358940000017   F   F   F
  0.3333221970000011  0.9166770579999977  0.4611358940000017   F   F   F
  0.5833221669999986  0.1666770730000025  0.4611358940000017   F   F   F
  0.5833221669999986  0.4166770579999977  0.4611358940000017   F   F   F
  0.5833221669999986  0.6666770579999977  0.4611358940000017   F   F   F
  0.5833221669999986  0.9166770579999977  0.4611358940000017   F   F   F
  0.8333221669999986  0.1666770730000025  0.4611358940000017   F   F   F
  0.8333221669999986  0.4166770579999977  0.4611358940000017   F   F   F
  0.8333221669999986  0.6666770579999977  0.4611358940000017   F   F   F
  0.8333221669999986  0.9166770579999977  0.4611358940000017   F   F   F
  0.1666768790000006  0.0833222870000014  0.5236359239999970   F   F   F
  0.1666768790000006  0.3333222870000014  0.5236359239999970   F   F   F
  0.1666768790000006  0.5833222870000014  0.5236359239999970   F   F   F
  0.1666768790000006  0.8333222870000014  0.5236359239999970   F   F   F
  0.4166768790000006  0.0833222870000014  0.5236359239999970   F   F   F
  0.4166768790000006  0.3333222870000014  0.5236359239999970   F   F   F
  0.4166768790000006  0.5833222870000014  0.5236359239999970   F   F   F
  0.4166768790000006  0.8333222870000014  0.5236359239999970   F   F   F
  0.6666768790000006  0.0833222870000014  0.5236359239999970   F   F   F
  0.6666768790000006  0.3333222870000014  0.5236359239999970   F   F   F
  0.6666768790000006  0.5833222870000014  0.5236359239999970   F   F   F
  0.6666768790000006  0.8333222870000014  0.5236359239999970   F   F   F
  0.9166768790000006  0.0833222870000014  0.5236359239999970   F   F   F
  0.9166768790000006  0.3333222870000014  0.5236359239999970   F   F   F
  0.9166768790000006  0.5833222870000014  0.5236359239999970   F   F   F
  0.9166768790000006  0.8333222870000014  0.5236359239999970   F   F   F
  0.0815658542838276  0.1675376517525919  0.5885584164296980   T   T   T
  0.0823967957285469  0.4171500556490936  0.5889694461310232   T   T   T
  0.0836890436114797  0.6649350033877576  0.5880907750277612   T   T   T
  0.0836552261107782  0.9183828988316419  0.5878330021017297   T   T   T
  0.3356570419480612  0.1702089911281850  0.5867706131357777   T   T   T
  0.3341419878955675  0.4122504063943099  0.5865971483902590   T   T   T
  0.3329912424476704  0.6679040866852135  0.5861773999566064   T   T   T
  0.3356848385077553  0.9183148610377390  0.5877198523383724   T   T   T
  0.5868618367779656  0.1669804642807895  0.5879792763947296   T   T   T
  0.5768470215389516  0.4118188760214133  0.5862791865755715   T   T   T
  0.5837827512077433  0.6689470901081179  0.5851671220586658   T   T   T
  0.5830192029761835  0.9171637333138835  0.5862342856592606   T   T   T
  0.8339427798999931  0.1675086201556419  0.5892640228237753   T   T   T
  0.8335380582394059  0.4177709075219642  0.5869925615660864   T   T   T
  0.8372651565150075  0.6681406220062335  0.5858680884432288   T   T   T
  0.8363589319782979  0.9181052538812414  0.5863364351839551   T   T   T
  0.1807349145196080  0.0950048338538289  0.6524225643987867   T   T   T
  0.1758341860784411  0.3385372672625092  0.6540559588872693   T   T   T
  0.1804726809737883  0.5905488979243924  0.6551408006051984   T   T   T
  0.1712749151193038  0.8382134284111420  0.6526656775171418   T   T   T
  0.4176250636260300  0.0955379995279695  0.6522134400326518   T   T   T
  0.4134647318009804  0.5782193708166005  0.6460445783387386   T   T   T
  0.4170290806330321  0.8334293506605677  0.6512955960735598   T   T   T
  0.6598983248360101  0.0700685857414985  0.6556040742641137   T   T   T
  0.6615795608231856  0.3366575435401596  0.6507082755442239   T   T   T
  0.6684529354075692  0.5853981627669100  0.6441779137563650   T   T   T
  0.6710154767091560  0.8381009846635503  0.6473634219756879   T   T   T
  0.9128000583861395  0.0737312128786408  0.6558652372403034   T   T   T
  0.9109026151240281  0.3388508762027181  0.6563799689646403   T   T   T
  0.9182152017051944  0.5894101764375573  0.6520384988683675   T   T   T
  0.9198839387387651  0.8342989664737837  0.6513996450685210   T   T   T
  0.0833225029999980  0.1666775050000027  0.3114693160000002   F   F   F
  0.0833225029999980  0.4166775050000027  0.3114693160000002   F   F   F
  0.0833225029999980  0.6666774750000002  0.3114693160000002   F   F   F
  0.0833225029999980  0.9166774750000002  0.3114693160000002   F   F   F
  0.3333224949999973  0.1666775050000027  0.3114693160000002   F   F   F
  0.3333224949999973  0.4166775050000027  0.3114693160000002   F   F   F
  0.3333224949999973  0.6666774750000002  0.3114693160000002   F   F   F
  0.3333224949999973  0.9166774750000002  0.3114693160000002   F   F   F
  0.5833225249999998  0.1666775050000027  0.3114693160000002   F   F   F
  0.5833225249999998  0.4166775050000027  0.3114693160000002   F   F   F
  0.5833225249999998  0.6666774750000002  0.3114693160000002   F   F   F
  0.5833225249999998  0.9166774750000002  0.3114693160000002   F   F   F
  0.8333225249999998  0.1666775050000027  0.3114693160000002   F   F   F
  0.8333225249999998  0.4166775050000027  0.3114693160000002   F   F   F
  0.8333225249999998  0.6666774750000002  0.3114693160000002   F   F   F
  0.8333225249999998  0.9166774750000002  0.3114693160000002   F   F   F
  0.5054367333371592  0.5080443655837847  0.7117491499014501   T   T   T
  0.7203948349179854  0.5152693827480332  0.7156562500767011   T   T   T
  0.5141292802369417  0.7256925675873078  0.7150881902041160   T   T   T
  0.7241379528081546  0.7290526068998425  0.7153434159025701   T   T   T
  0.3738617186490452  0.2198474982377374  0.7118729262051233   T   T   T
  0.4073702986631800  0.3100107589458870  0.7159591164719518   T   T   T
  0.4378995818931605  0.2066611585012701  0.7194799275815618   T   T   T
 
  0.00000000E+00  0.00000000E+00  0.00000000E+00
  0.00000000E+00  0.00000000E+00  0.00000000E+00
  0.00000000E+00  0.00000000E+00  0.00000000E+00
  0.00000000E+00  0.00000000E+00  0.00000000E+00
  0.00000000E+00  0.00000000E+00  0.00000000E+00
  0.00000000E+00  0.00000000E+00  0.00000000E+00
  0.00000000E+00  0.00000000E+00  0.00000000E+00
  0.00000000E+00  0.00000000E+00  0.00000000E+00
  0.00000000E+00  0.00000000E+00  0.00000000E+00
  0.00000000E+00  0.00000000E+00  0.00000000E+00
  0.00000000E+00  0.00000000E+00  0.00000000E+00
  0.00000000E+00  0.00000000E+00  0.00000000E+00
  0.00000000E+00  0.00000000E+00  0.00000000E+00
  0.00000000E+00  0.00000000E+00  0.00000000E+00
  0.00000000E+00  0.00000000E+00  0.00000000E+00
  0.00000000E+00  0.00000000E+00  0.00000000E+00
  0.00000000E+00  0.00000000E+00  0.00000000E+00
  0.00000000E+00  0.00000000E+00  0.00000000E+00
  0.00000000E+00  0.00000000E+00  0.00000000E+00
  0.00000000E+00  0.00000000E+00  0.00000000E+00
  0.00000000E+00  0.00000000E+00  0.00000000E+00
  0.00000000E+00  0.00000000E+00  0.00000000E+00
  0.00000000E+00  0.00000000E+00  0.00000000E+00
  0.00000000E+00  0.00000000E+00  0.00000000E+00
  0.00000000E+00  0.00000000E+00  0.00000000E+00
  0.00000000E+00  0.00000000E+00  0.00000000E+00
  0.00000000E+00  0.00000000E+00  0.00000000E+00
  0.00000000E+00  0.00000000E+00  0.00000000E+00
  0.00000000E+00  0.00000000E+00  0.00000000E+00
  0.00000000E+00  0.00000000E+00  0.00000000E+00
  0.00000000E+00  0.00000000E+00  0.00000000E+00
  0.00000000E+00  0.00000000E+00  0.00000000E+00
  0.00000000E+00  0.00000000E+00  0.00000000E+00
  0.00000000E+00  0.00000000E+00  0.00000000E+00
  0.00000000E+00  0.00000000E+00  0.00000000E+00
  0.00000000E+00  0.00000000E+00  0.00000000E+00
  0.00000000E+00  0.00000000E+00  0.00000000E+00
  0.00000000E+00  0.00000000E+00  0.00000000E+00
  0.00000000E+00  0.00000000E+00  0.00000000E+00
  0.00000000E+00  0.00000000E+00  0.00000000E+00
  0.00000000E+00  0.00000000E+00  0.00000000E+00
  0.00000000E+00  0.00000000E+00  0.00000000E+00
  0.00000000E+00  0.00000000E+00  0.00000000E+00
  0.00000000E+00  0.00000000E+00  0.00000000E+00
  0.00000000E+00  0.00000000E+00  0.00000000E+00
  0.00000000E+00  0.00000000E+00  0.00000000E+00
  0.00000000E+00  0.00000000E+00  0.00000000E+00
  0.00000000E+00  0.00000000E+00  0.00000000E+00
  0.00000000E+00  0.00000000E+00  0.00000000E+00
  0.00000000E+00  0.00000000E+00  0.00000000E+00
  0.00000000E+00  0.00000000E+00  0.00000000E+00
  0.00000000E+00  0.00000000E+00  0.00000000E+00
  0.00000000E+00  0.00000000E+00  0.00000000E+00
  0.00000000E+00  0.00000000E+00  0.00000000E+00
  0.00000000E+00  0.00000000E+00  0.00000000E+00
  0.00000000E+00  0.00000000E+00  0.00000000E+00
  0.00000000E+00  0.00000000E+00  0.00000000E+00
  0.00000000E+00  0.00000000E+00  0.00000000E+00
  0.00000000E+00  0.00000000E+00  0.00000000E+00
  0.00000000E+00  0.00000000E+00  0.00000000E+00
  0.00000000E+00  0.00000000E+00  0.00000000E+00
  0.00000000E+00  0.00000000E+00  0.00000000E+00
  0.00000000E+00  0.00000000E+00  0.00000000E+00
  0.00000000E+00  0.00000000E+00  0.00000000E+00
  0.00000000E+00  0.00000000E+00  0.00000000E+00
  0.00000000E+00  0.00000000E+00  0.00000000E+00
  0.00000000E+00  0.00000000E+00  0.00000000E+00
  0.00000000E+00  0.00000000E+00  0.00000000E+00
  0.00000000E+00  0.00000000E+00  0.00000000E+00
  0.00000000E+00  0.00000000E+00  0.00000000E+00
  0.00000000E+00  0.00000000E+00  0.00000000E+00
  0.00000000E+00  0.00000000E+00  0.00000000E+00
  0.00000000E+00  0.00000000E+00  0.00000000E+00
  0.00000000E+00  0.00000000E+00  0.00000000E+00
  0.00000000E+00  0.00000000E+00  0.00000000E+00
  0.00000000E+00  0.00000000E+00  0.00000000E+00
  0.00000000E+00  0.00000000E+00  0.00000000E+00
  0.00000000E+00  0.00000000E+00  0.00000000E+00
  0.00000000E+00  0.00000000E+00  0.00000000E+00
  0.00000000E+00  0.00000000E+00  0.00000000E+00
  0.00000000E+00  0.00000000E+00  0.00000000E+00
  0.00000000E+00  0.00000000E+00  0.00000000E+00
  0.00000000E+00  0.00000000E+00  0.00000000E+00
  0.00000000E+00  0.00000000E+00  0.00000000E+00
  0.00000000E+00  0.00000000E+00  0.00000000E+00
  0.00000000E+00  0.00000000E+00  0.00000000E+00
  0.00000000E+00  0.00000000E+00  0.00000000E+00
  0.00000000E+00  0.00000000E+00  0.00000000E+00
  0.00000000E+00  0.00000000E+00  0.00000000E+00
  0.00000000E+00  0.00000000E+00  0.00000000E+00
  0.00000000E+00  0.00000000E+00  0.00000000E+00
  0.00000000E+00  0.00000000E+00  0.00000000E+00
  0.00000000E+00  0.00000000E+00  0.00000000E+00
  0.00000000E+00  0.00000000E+00  0.00000000E+00
  0.00000000E+00  0.00000000E+00  0.00000000E+00
  0.00000000E+00  0.00000000E+00  0.00000000E+00
  0.00000000E+00  0.00000000E+00  0.00000000E+00
  0.00000000E+00  0.00000000E+00  0.00000000E+00
  0.00000000E+00  0.00000000E+00  0.00000000E+00
  0.00000000E+00  0.00000000E+00  0.00000000E+00
  0.00000000E+00  0.00000000E+00  0.00000000E+00
  0.00000000E+00  0.00000000E+00  0.00000000E+00
  0.00000000E+00  0.00000000E+00  0.00000000E+00
  0.00000000E+00  0.00000000E+00  0.00000000E+00
  0.00000000E+00  0.00000000E+00  0.00000000E+00
  0.00000000E+00  0.00000000E+00  0.00000000E+00
  0.00000000E+00  0.00000000E+00  0.00000000E+00
  0.00000000E+00  0.00000000E+00  0.00000000E+00
  0.00000000E+00  0.00000000E+00  0.00000000E+00
  0.00000000E+00  0.00000000E+00  0.00000000E+00
  0.00000000E+00  0.00000000E+00  0.00000000E+00
  0.00000000E+00  0.00000000E+00  0.00000000E+00
  0.00000000E+00  0.00000000E+00  0.00000000E+00
  0.00000000E+00  0.00000000E+00  0.00000000E+00
  0.00000000E+00  0.00000000E+00  0.00000000E+00
  0.00000000E+00  0.00000000E+00  0.00000000E+00
  0.00000000E+00  0.00000000E+00  0.00000000E+00
  0.00000000E+00  0.00000000E+00  0.00000000E+00
  0.00000000E+00  0.00000000E+00  0.00000000E+00
  0.00000000E+00  0.00000000E+00  0.00000000E+00
  0.00000000E+00  0.00000000E+00  0.00000000E+00
  0.00000000E+00  0.00000000E+00  0.00000000E+00
  0.00000000E+00  0.00000000E+00  0.00000000E+00
  0.00000000E+00  0.00000000E+00  0.00000000E+00
  0.00000000E+00  0.00000000E+00  0.00000000E+00
  0.00000000E+00  0.00000000E+00  0.00000000E+00
  0.00000000E+00  0.00000000E+00  0.00000000E+00
  0.00000000E+00  0.00000000E+00  0.00000000E+00
  0.00000000E+00  0.00000000E+00  0.00000000E+00
  0.00000000E+00  0.00000000E+00  0.00000000E+00
  0.00000000E+00  0.00000000E+00  0.00000000E+00
  0.00000000E+00  0.00000000E+00  0.00000000E+00
  0.00000000E+00  0.00000000E+00  0.00000000E+00
  0.00000000E+00  0.00000000E+00  0.00000000E+00
  0.00000000E+00  0.00000000E+00  0.00000000E+00
  0.00000000E+00  0.00000000E+00  0.00000000E+00
  0.00000000E+00  0.00000000E+00  0.00000000E+00
  0.00000000E+00  0.00000000E+00  0.00000000E+00
  0.00000000E+00  0.00000000E+00  0.00000000E+00
  0.00000000E+00  0.00000000E+00  0.00000000E+00
  0.00000000E+00  0.00000000E+00  0.00000000E+00
  0.00000000E+00  0.00000000E+00  0.00000000E+00
  0.00000000E+00  0.00000000E+00  0.00000000E+00
  0.00000000E+00  0.00000000E+00  0.00000000E+00
  0.00000000E+00  0.00000000E+00  0.00000000E+00
  0.00000000E+00  0.00000000E+00  0.00000000E+00
  0.00000000E+00  0.00000000E+00  0.00000000E+00
  0.00000000E+00  0.00000000E+00  0.00000000E+00
  0.00000000E+00  0.00000000E+00  0.00000000E+00
  0.00000000E+00  0.00000000E+00  0.00000000E+00
  0.00000000E+00  0.00000000E+00  0.00000000E+00
  0.00000000E+00  0.00000000E+00  0.00000000E+00
  0.00000000E+00  0.00000000E+00  0.00000000E+00
  0.00000000E+00  0.00000000E+00  0.00000000E+00
  0.00000000E+00  0.00000000E+00  0.00000000E+00
  0.00000000E+00  0.00000000E+00  0.00000000E+00
  0.00000000E+00  0.00000000E+00  0.00000000E+00
  0.00000000E+00  0.00000000E+00  0.00000000E+00
  0.00000000E+00  0.00000000E+00  0.00000000E+00
  0.00000000E+00  0.00000000E+00  0.00000000E+00
  0.00000000E+00  0.00000000E+00  0.00000000E+00
  0.00000000E+00  0.00000000E+00  0.00000000E+00
  0.00000000E+00  0.00000000E+00  0.00000000E+00
  0.00000000E+00  0.00000000E+00  0.00000000E+00
  0.00000000E+00  0.00000000E+00  0.00000000E+00
  0.00000000E+00  0.00000000E+00  0.00000000E+00
  0.00000000E+00  0.00000000E+00  0.00000000E+00
  0.00000000E+00  0.00000000E+00  0.00000000E+00
  0.00000000E+00  0.00000000E+00  0.00000000E+00
  0.00000000E+00  0.00000000E+00  0.00000000E+00
  0.00000000E+00  0.00000000E+00  0.00000000E+00
  0.00000000E+00  0.00000000E+00  0.00000000E+00
  0.00000000E+00  0.00000000E+00  0.00000000E+00
  0.00000000E+00  0.00000000E+00  0.00000000E+00
  0.00000000E+00  0.00000000E+00  0.00000000E+00
  0.00000000E+00  0.00000000E+00  0.00000000E+00
  0.00000000E+00  0.00000000E+00  0.00000000E+00
  0.00000000E+00  0.00000000E+00  0.00000000E+00
  0.00000000E+00  0.00000000E+00  0.00000000E+00
  0.00000000E+00  0.00000000E+00  0.00000000E+00
  0.00000000E+00  0.00000000E+00  0.00000000E+00
  0.00000000E+00  0.00000000E+00  0.00000000E+00
  0.00000000E+00  0.00000000E+00  0.00000000E+00
  0.00000000E+00  0.00000000E+00  0.00000000E+00
  0.00000000E+00  0.00000000E+00  0.00000000E+00
  0.00000000E+00  0.00000000E+00  0.00000000E+00
  0.00000000E+00  0.00000000E+00  0.00000000E+00
  0.00000000E+00  0.00000000E+00  0.00000000E+00
  0.00000000E+00  0.00000000E+00  0.00000000E+00
  0.00000000E+00  0.00000000E+00  0.00000000E+00
  0.00000000E+00  0.00000000E+00  0.00000000E+00
  0.00000000E+00  0.00000000E+00  0.00000000E+00
  0.00000000E+00  0.00000000E+00  0.00000000E+00
  0.00000000E+00  0.00000000E+00  0.00000000E+00
  0.00000000E+00  0.00000000E+00  0.00000000E+00
  0.00000000E+00  0.00000000E+00  0.00000000E+00
  0.00000000E+00  0.00000000E+00  0.00000000E+00
  0.00000000E+00  0.00000000E+00  0.00000000E+00
  0.00000000E+00  0.00000000E+00  0.00000000E+00
  0.00000000E+00  0.00000000E+00  0.00000000E+00
  0.00000000E+00  0.00000000E+00  0.00000000E+00
  0.00000000E+00  0.00000000E+00  0.00000000E+00
  0.00000000E+00  0.00000000E+00  0.00000000E+00
  0.00000000E+00  0.00000000E+00  0.00000000E+00
  0.00000000E+00  0.00000000E+00  0.00000000E+00
  0.00000000E+00  0.00000000E+00  0.00000000E+00
  0.00000000E+00  0.00000000E+00  0.00000000E+00
  0.00000000E+00  0.00000000E+00  0.00000000E+00
  0.00000000E+00  0.00000000E+00  0.00000000E+00
  0.00000000E+00  0.00000000E+00  0.00000000E+00
  0.00000000E+00  0.00000000E+00  0.00000000E+00
  0.00000000E+00  0.00000000E+00  0.00000000E+00
  0.00000000E+00  0.00000000E+00  0.00000000E+00
  0.00000000E+00  0.00000000E+00  0.00000000E+00
