ZnH4                                    
   1.00000000000000     
    13.0000000000000000    0.0000000000000000    0.0000000000000000
     0.0000000000000000   14.0000000000000000    0.0000000000000000
     0.0000000000000000    0.0000000000000000   15.0000000000000000
   O    H 
     1     4
Selective dynamics
Direct
  0.2484123076923055  0.2663207142857118  0.3083113333333358   F   F   F
  0.2483882641868149  0.2662870600155074  0.2386105911505965   T   T   T
  0.1826971875038126  0.3015040921703473  0.3314397381947032   T   T   T
  0.3141155989592832  0.3015129723938728  0.3314388629968406   T   T   T
  0.2483900633254663  0.1958663098993725  0.3314218634966224   T   T   T
 
  0.00000000E+00  0.00000000E+00  0.00000000E+00
  0.00000000E+00  0.00000000E+00  0.00000000E+00
  0.00000000E+00  0.00000000E+00  0.00000000E+00
  0.00000000E+00  0.00000000E+00  0.00000000E+00
  0.00000000E+00  0.00000000E+00  0.00000000E+00
