ZnH4
1.0
13 0 0
0 14 0
0 0 15
O H
 1 4
Selective Dynamics
Cartesian
  3.22936   3.72849   4.62467  F F F
  3.22897   3.72872   2.64533  T T T
  1.61487   4.66066   5.26230  T T T
  4.84387   4.66066   5.26230  T T T
  3.22926   1.86420   5.26230  T T T
