Zn6 H1 O6                               
   1.00000000000000     
     3.2289977074000000    0.0000000000000000    0.0000000000000000
    -1.6143826751999999    2.7964611158000001    0.0000000000000000
     0.0000000000000000    0.0000000000000000   41.6376190185999988
   Zn   O    H 
     6     6     1
Direct
  0.3204127644658286  0.6795875421801014  0.3968137306912425
  0.6537703645844388  0.3462313576873228  0.3322120341103343
  0.3204375344645598  0.6795621741600755  0.5259679716469563
  0.6539500042466031  0.3460502857767978  0.4613700415736020
  0.3206098755784268  0.6793891425842489  0.6562385871674010
  0.6538898378131890  0.3461098374171172  0.5906317232810849
  0.3206020354864378  0.6793982524977196  0.4437118827455322
  0.6537794756622546  0.3462207557017223  0.3790989354983125
  0.3205486569967562  0.6794510416248940  0.5730170832772004
  0.6538325611178166  0.3461671385747778  0.5083843214224402
  0.3204540000152747  0.6795457710251895  0.7020384359427041
  0.6539823787733852  0.3460165748383019  0.6376583863866188
  0.6537305107950218  0.3462701259317456  0.2928568662565638
 
  0.00000000E+00  0.00000000E+00  0.00000000E+00
  0.00000000E+00  0.00000000E+00  0.00000000E+00
  0.00000000E+00  0.00000000E+00  0.00000000E+00
  0.00000000E+00  0.00000000E+00  0.00000000E+00
  0.00000000E+00  0.00000000E+00  0.00000000E+00
  0.00000000E+00  0.00000000E+00  0.00000000E+00
  0.00000000E+00  0.00000000E+00  0.00000000E+00
  0.00000000E+00  0.00000000E+00  0.00000000E+00
  0.00000000E+00  0.00000000E+00  0.00000000E+00
  0.00000000E+00  0.00000000E+00  0.00000000E+00
  0.00000000E+00  0.00000000E+00  0.00000000E+00
  0.00000000E+00  0.00000000E+00  0.00000000E+00
  0.00000000E+00  0.00000000E+00  0.00000000E+00
