Zn6 H1 O6
1.0
   3.2289977074000000    0.0000000000000000    0.0000000000000000
  -1.6143826751999999    2.7964611158000001    0.0000000000000000
   0.0000000000000000    0.0000000000000000   41.6376190185999988
Zn O H
6 6 1
direct
0.3205534152307692 0.6794469772307692 0.3987884730769230 F F F
0.6538118652307692 0.3461888842307692 0.3359372820769230 F F F
0.3205529082307692 0.6794466192307692 0.5244907640769230 F F F
0.6538113882307692 0.3461885272307691 0.4616396040769230 F F F
0.3205524312307692 0.6794462612307691 0.6501931460769230 T T T
0.6538109112307692 0.3461881692307692 0.5873419550769230 T T T
0.3204731272307692 0.6795273832307692 0.4463258590769230 F F F
0.6538923312307692 0.3461086272307692 0.3834746980769230 F F F
0.3204726512307692 0.6795270262307692 0.5720282100769229 F F F
0.6538917952307691 0.3461082692307691 0.5091770200769230 F F F
0.3204721442307692 0.6795266682307691 0.6977305920769230 T T T
0.6538913182307692 0.3461079112307692 0.6348794010769230 T T T
0.6538137132307692 0.3461886762307692 0.2979929950769230 F F F
