Zn96 H16 Pt4 O96                        
    1.000000000000000     
    12.9159910000000000    0.0000000000000000    0.0000000000000000
    -6.4575310000000004   11.1858439999999995    0.0000000000000000
     0.0000000000000000    0.0000000000000000   41.8715669999999989
   Zn   O    H    Pt
    96    96    16     4
Selective dynamics
Direct
  0.0808256188264238  0.1635791897880736  0.4128793436146054   T   T   T
  0.0801057654450688  0.4168806655539896  0.4130814058702441   T   T   T
  0.0818959691780634  0.6657059038856019  0.4123559803154180   T   T   T
  0.0828876896274906  0.9170652391749954  0.4120862037336934   T   T   T
  0.3315770108440077  0.1624153473112671  0.4132347616471392   T   T   T
  0.3306458515361825  0.4142929701656186  0.4141557029949183   T   T   T
  0.3310816356997677  0.6687826182438030  0.4138198326941449   T   T   T
  0.3342478286879285  0.9179218191108802  0.4123344503889896   T   T   T
  0.5834446678386485  0.1669876295343897  0.4120423134056637   T   T   T
  0.5850407155960937  0.4150417004454638  0.4139517332062468   T   T   T
  0.5855886121873510  0.6691466032131927  0.4141413708367665   T   T   T
  0.5829870709243323  0.9194936837947694  0.4130319453532181   T   T   T
  0.8327426192461047  0.1670595434688309  0.4118365172846978   T   T   T
  0.8327838876064959  0.4163364440089552  0.4120450229936807   T   T   T
  0.8372689559748494  0.6682463705380997  0.4132013466513627   T   T   T
  0.8360351743816921  0.9189120354647144  0.4128411769498825   T   T   T
  0.1670115270080501  0.0835810841343161  0.3464608598566699   T   T   T
  0.1494728474866207  0.3244478989040473  0.3513892131725456   T   T   T
  0.1581089887303335  0.5792787223515390  0.3480863032911401   T   T   T
  0.1661687612106206  0.8335741381683093  0.3477955484868360   T   T   T
  0.4140277225306050  0.0819515974812433  0.3456832022169820   T   T   T
  0.4129345188288127  0.3204748959150123  0.3528764085617695   T   T   T
  0.4164342041907076  0.5832231776331653  0.3539344174256840   T   T   T
  0.4203682560946689  0.8413687288971516  0.3479627426945058   T   T   T
  0.6648269131873548  0.0826763531934844  0.3455279767117787   T   T   T
  0.6706275148774878  0.3289481765407487  0.3465727705671924   T   T   T
  0.6789673870209256  0.5867071623548625  0.3526519364063034   T   T   T
  0.6750935948582537  0.8496355749613969  0.3510972848325196   T   T   T
  0.9167923694217563  0.0830296971817006  0.3456804061937007   T   T   T
  0.9169664845880732  0.3348726897312702  0.3454888066752417   T   T   T
  0.9177215747279064  0.5856307817214415  0.3457406144459441   T   T   T
  0.9164074796240982  0.8328394860481581  0.3465183174502329   T   T   T
  0.0833420000000018  0.1666570000000007  0.5388639999999967   F   F   F
  0.0833420000000018  0.4166570000000007  0.5388639999999967   F   F   F
  0.0833420000000018  0.6666570000000007  0.5388639999999967   F   F   F
  0.0833420000000018  0.9166570000000007  0.5388639999999967   F   F   F
  0.3333420000000018  0.1666570000000007  0.5388639999999967   F   F   F
  0.3333420000000018  0.4166570000000007  0.5388639999999967   F   F   F
  0.3333420000000018  0.6666570000000007  0.5388639999999967   F   F   F
  0.3333420000000018  0.9166570000000007  0.5388639999999967   F   F   F
  0.5833420000000018  0.1666570000000007  0.5388639999999967   F   F   F
  0.5833420000000018  0.4166570000000007  0.5388639999999967   F   F   F
  0.5833420000000018  0.6666570000000007  0.5388639999999967   F   F   F
  0.5833420000000018  0.9166570000000007  0.5388639999999967   F   F   F
  0.8333420000000018  0.1666570000000007  0.5388639999999967   F   F   F
  0.8333420000000018  0.4166570000000007  0.5388639999999967   F   F   F
  0.8333420000000018  0.6666570000000007  0.5388639999999967   F   F   F
  0.8333420000000018  0.9166570000000007  0.5388639999999967   F   F   F
  0.1666570000000007  0.0833420000000018  0.4763639999999967   F   F   F
  0.1666570000000007  0.3333420000000018  0.4763639999999967   F   F   F
  0.1666570000000007  0.5833420000000018  0.4763639999999967   F   F   F
  0.1666570000000007  0.8333420000000018  0.4763639999999967   F   F   F
  0.4166570000000007  0.0833420000000018  0.4763639999999967   F   F   F
  0.4166570000000007  0.3333420000000018  0.4763639999999967   F   F   F
  0.4166570000000007  0.5833420000000018  0.4763639999999967   F   F   F
  0.4166570000000007  0.8333420000000018  0.4763639999999967   F   F   F
  0.6666570000000007  0.0833420000000018  0.4763639999999967   F   F   F
  0.6666570000000007  0.3333420000000018  0.4763639999999967   F   F   F
  0.6666570000000007  0.5833420000000018  0.4763639999999967   F   F   F
  0.6666570000000007  0.8333420000000018  0.4763639999999967   F   F   F
  0.9166570000000007  0.0833420000000018  0.4763639999999967   F   F   F
  0.9166570000000007  0.3333420000000018  0.4763639999999967   F   F   F
  0.9166570000000007  0.5833420000000018  0.4763639999999967   F   F   F
  0.9166570000000007  0.8333420000000018  0.4763639999999967   F   F   F
  0.0833420000000018  0.1666570000000007  0.6638639999999967   F   F   F
  0.0833420000000018  0.4166570000000007  0.6638639999999967   F   F   F
  0.0833420000000018  0.6666570000000007  0.6638639999999967   F   F   F
  0.0833420000000018  0.9166570000000007  0.6638639999999967   F   F   F
  0.3333420000000018  0.1666570000000007  0.6638639999999967   F   F   F
  0.3333420000000018  0.4166570000000007  0.6638639999999967   F   F   F
  0.3333420000000018  0.6666570000000007  0.6638639999999967   F   F   F
  0.3333420000000018  0.9166570000000007  0.6638639999999967   F   F   F
  0.5833420000000018  0.1666570000000007  0.6638639999999967   F   F   F
  0.5833420000000018  0.4166570000000007  0.6638639999999967   F   F   F
  0.5833420000000018  0.6666570000000007  0.6638639999999967   F   F   F
  0.5833420000000018  0.9166570000000007  0.6638639999999967   F   F   F
  0.8333420000000018  0.1666570000000007  0.6638639999999967   F   F   F
  0.8333420000000018  0.4166570000000007  0.6638639999999967   F   F   F
  0.8333420000000018  0.6666570000000007  0.6638639999999967   F   F   F
  0.8333420000000018  0.9166570000000007  0.6638639999999967   F   F   F
  0.1666570000000007  0.0833420000000018  0.6013639999999967   F   F   F
  0.1666570000000007  0.3333420000000018  0.6013639999999967   F   F   F
  0.1666570000000007  0.5833420000000018  0.6013639999999967   F   F   F
  0.1666570000000007  0.8333420000000018  0.6013639999999967   F   F   F
  0.4166570000000007  0.0833420000000018  0.6013639999999967   F   F   F
  0.4166570000000007  0.3333420000000018  0.6013639999999967   F   F   F
  0.4166570000000007  0.5833420000000018  0.6013639999999967   F   F   F
  0.4166570000000007  0.8333420000000018  0.6013639999999967   F   F   F
  0.6666570000000007  0.0833420000000018  0.6013639999999967   F   F   F
  0.6666570000000007  0.3333420000000018  0.6013639999999967   F   F   F
  0.6666570000000007  0.5833420000000018  0.6013639999999967   F   F   F
  0.6666570000000007  0.8333420000000018  0.6013639999999967   F   F   F
  0.9166570000000007  0.0833420000000018  0.6013639999999967   F   F   F
  0.9166570000000007  0.3333420000000018  0.6013639999999967   F   F   F
  0.9166570000000007  0.5833420000000018  0.6013639999999967   F   F   F
  0.9166570000000007  0.8333420000000018  0.6013639999999967   F   F   F
  0.0834919003351189  0.1661719489269018  0.3356835329004326   T   T   T
  0.0845943988470879  0.4168830700937889  0.3348031106737253   T   T   T
  0.0846049328217546  0.6686480051368946  0.3365711644102234   T   T   T
  0.0832495925847851  0.9167090938311517  0.3382891584980499   T   T   T
  0.3326892597023843  0.1671094702862987  0.3341892937445721   T   T   T
  0.3279636376805044  0.4116843662935565  0.3389611822903049   T   T   T
  0.3333602977976753  0.6659627835728585  0.3331597381963789   T   T   T
  0.3310636623678320  0.9150625320613130  0.3365340026000823   T   T   T
  0.5807613931332654  0.1654740274925999  0.3355109008122028   T   T   T
  0.5813840421754506  0.4180867292862800  0.3336184328587066   T   T   T
  0.5875308868112299  0.6712508900468421  0.3385198665210325   T   T   T
  0.5828352755896660  0.9150930826826311  0.3348242392789800   T   T   T
  0.8327536511996669  0.1669411017294280  0.3373697183177455   T   T   T
  0.8341144762075388  0.4189224986385014  0.3355314458518848   T   T   T
  0.8328061473011132  0.6671677224629846  0.3342944545015030   T   T   T
  0.8338198080936294  0.9163345653660784  0.3357726443817981   T   T   T
  0.1673628699669720  0.0847017793720823  0.3971806500287727   T   T   T
  0.1659072874663465  0.3335260809993130  0.3988193286100667   T   T   T
  0.1681776425444568  0.5833780650282705  0.3968496776053811   T   T   T
  0.1669326217869482  0.8329754920165158  0.3979221770510932   T   T   T
  0.4166948290050101  0.0839131482831164  0.3968043426533541   T   T   T
  0.4173158711279328  0.3341145640104202  0.3991733342295447   T   T   T
  0.4163704211812842  0.5834890884844768  0.3996446816743529   T   T   T
  0.4164436015711743  0.8315758247890912  0.3967882845535300   T   T   T
  0.6656082171073976  0.0831516315726830  0.3968770778962565   T   T   T
  0.6653410857567863  0.3344231825403057  0.3959820594593779   T   T   T
  0.6656894320449211  0.5825732615818779  0.3990184342267895   T   T   T
  0.6662153291777884  0.8336676631204938  0.3986303600836365   T   T   T
  0.9163653098451050  0.0834651145933094  0.3969830390393980   T   T   T
  0.9165903133205404  0.3341766361664327  0.3968544244792369   T   T   T
  0.9158769348976250  0.5831104796400552  0.3968469469693048   T   T   T
  0.9152373305394761  0.8325586748676699  0.3972220052607582   T   T   T
  0.0833220000000026  0.1666770000000000  0.4611360000000033   F   F   F
  0.0833220000000026  0.4166770000000000  0.4611360000000033   F   F   F
  0.0833220000000026  0.6666770000000000  0.4611360000000033   F   F   F
  0.0833220000000026  0.9166770000000000  0.4611360000000033   F   F   F
  0.3333220000000026  0.1666770000000000  0.4611360000000033   F   F   F
  0.3333220000000026  0.4166770000000000  0.4611360000000033   F   F   F
  0.3333220000000026  0.6666770000000000  0.4611360000000033   F   F   F
  0.3333220000000026  0.9166770000000000  0.4611360000000033   F   F   F
  0.5833220000000026  0.1666770000000000  0.4611360000000033   F   F   F
  0.5833220000000026  0.4166770000000000  0.4611360000000033   F   F   F
  0.5833220000000026  0.6666770000000000  0.4611360000000033   F   F   F
  0.5833220000000026  0.9166770000000000  0.4611360000000033   F   F   F
  0.8333220000000026  0.1666770000000000  0.4611360000000033   F   F   F
  0.8333220000000026  0.4166770000000000  0.4611360000000033   F   F   F
  0.8333220000000026  0.6666770000000000  0.4611360000000033   F   F   F
  0.8333220000000026  0.9166770000000000  0.4611360000000033   F   F   F
  0.1666770000000000  0.0833220000000026  0.5236360000000033   F   F   F
  0.1666770000000000  0.3333220000000026  0.5236360000000033   F   F   F
  0.1666770000000000  0.5833220000000026  0.5236360000000033   F   F   F
  0.1666770000000000  0.8333220000000026  0.5236360000000033   F   F   F
  0.4166770000000000  0.0833220000000026  0.5236360000000033   F   F   F
  0.4166770000000000  0.3333220000000026  0.5236360000000033   F   F   F
  0.4166770000000000  0.5833220000000026  0.5236360000000033   F   F   F
  0.4166770000000000  0.8333220000000026  0.5236360000000033   F   F   F
  0.6666770000000000  0.0833220000000026  0.5236360000000033   F   F   F
  0.6666770000000000  0.3333220000000026  0.5236360000000033   F   F   F
  0.6666770000000000  0.5833220000000026  0.5236360000000033   F   F   F
  0.6666770000000000  0.8333220000000026  0.5236360000000033   F   F   F
  0.9166770000000000  0.0833220000000026  0.5236360000000033   F   F   F
  0.9166770000000000  0.3333220000000026  0.5236360000000033   F   F   F
  0.9166770000000000  0.5833220000000026  0.5236360000000033   F   F   F
  0.9166770000000000  0.8333220000000026  0.5236360000000033   F   F   F
  0.0833220000000026  0.1666770000000000  0.5861360000000033   F   F   F
  0.0833220000000026  0.4166770000000000  0.5861360000000033   F   F   F
  0.0833220000000026  0.6666770000000000  0.5861360000000033   F   F   F
  0.0833220000000026  0.9166770000000000  0.5861360000000033   F   F   F
  0.3333220000000026  0.1666770000000000  0.5861360000000033   F   F   F
  0.3333220000000026  0.4166770000000000  0.5861360000000033   F   F   F
  0.3333220000000026  0.6666770000000000  0.5861360000000033   F   F   F
  0.3333220000000026  0.9166770000000000  0.5861360000000033   F   F   F
  0.5833220000000026  0.1666770000000000  0.5861360000000033   F   F   F
  0.5833220000000026  0.4166770000000000  0.5861360000000033   F   F   F
  0.5833220000000026  0.6666770000000000  0.5861360000000033   F   F   F
  0.5833220000000026  0.9166770000000000  0.5861360000000033   F   F   F
  0.8333220000000026  0.1666770000000000  0.5861360000000033   F   F   F
  0.8333220000000026  0.4166770000000000  0.5861360000000033   F   F   F
  0.8333220000000026  0.6666770000000000  0.5861360000000033   F   F   F
  0.8333220000000026  0.9166770000000000  0.5861360000000033   F   F   F
  0.1666770000000000  0.0833220000000026  0.6486360000000033   F   F   F
  0.1666770000000000  0.3333220000000026  0.6486360000000033   F   F   F
  0.1666770000000000  0.5833220000000026  0.6486360000000033   F   F   F
  0.1666770000000000  0.8333220000000026  0.6486360000000033   F   F   F
  0.4166770000000000  0.0833220000000026  0.6486360000000033   F   F   F
  0.4166770000000000  0.3333220000000026  0.6486360000000033   F   F   F
  0.4166770000000000  0.5833220000000026  0.6486360000000033   F   F   F
  0.4166770000000000  0.8333220000000026  0.6486360000000033   F   F   F
  0.6666770000000000  0.0833220000000026  0.6486360000000033   F   F   F
  0.6666770000000000  0.3333220000000026  0.6486360000000033   F   F   F
  0.6666770000000000  0.5833220000000026  0.6486360000000033   F   F   F
  0.6666770000000000  0.8333220000000026  0.6486360000000033   F   F   F
  0.9166770000000000  0.0833220000000026  0.6486360000000033   F   F   F
  0.9166770000000000  0.3333220000000026  0.6486360000000033   F   F   F
  0.9166770000000000  0.5833220000000026  0.6486360000000033   F   F   F
  0.9166770000000000  0.8333220000000026  0.6486360000000033   F   F   F
  0.0833420000000018  0.1666579999999982  0.7015940000000001   F   F   F
  0.0833420000000018  0.4166579999999982  0.7015940000000001   F   F   F
  0.0833420000000018  0.6666579999999982  0.7015940000000001   F   F   F
  0.0833420000000018  0.9166579999999982  0.7015940000000001   F   F   F
  0.3333420000000018  0.1666579999999982  0.7015940000000001   F   F   F
  0.3333420000000018  0.4166579999999982  0.7015940000000001   F   F   F
  0.3333420000000018  0.6666579999999982  0.7015940000000001   F   F   F
  0.3333420000000018  0.9166579999999982  0.7015940000000001   F   F   F
  0.5833420000000018  0.1666579999999982  0.7015940000000001   F   F   F
  0.5833420000000018  0.4166579999999982  0.7015940000000001   F   F   F
  0.5833420000000018  0.6666579999999982  0.7015940000000001   F   F   F
  0.5833420000000018  0.9166579999999982  0.7015940000000001   F   F   F
  0.8333420000000018  0.1666579999999982  0.7015940000000001   F   F   F
  0.8333420000000018  0.4166579999999982  0.7015940000000001   F   F   F
  0.8333420000000018  0.6666579999999982  0.7015940000000001   F   F   F
  0.8333420000000018  0.9166579999999982  0.7015940000000001   F   F   F
  0.5839106397115827  0.6672378528631384  0.2907415005467442   T   T   T
  0.3710564645371903  0.6245520134994962  0.2903314624421327   T   T   T
  0.5409857004445655  0.4542645817025317  0.2904983363302236   T   T   T
  0.3281873623800067  0.4116600501451160  0.2911032631732056   T   T   T
 
  0.00000000E+00  0.00000000E+00  0.00000000E+00
  0.00000000E+00  0.00000000E+00  0.00000000E+00
  0.00000000E+00  0.00000000E+00  0.00000000E+00
  0.00000000E+00  0.00000000E+00  0.00000000E+00
  0.00000000E+00  0.00000000E+00  0.00000000E+00
  0.00000000E+00  0.00000000E+00  0.00000000E+00
  0.00000000E+00  0.00000000E+00  0.00000000E+00
  0.00000000E+00  0.00000000E+00  0.00000000E+00
  0.00000000E+00  0.00000000E+00  0.00000000E+00
  0.00000000E+00  0.00000000E+00  0.00000000E+00
  0.00000000E+00  0.00000000E+00  0.00000000E+00
  0.00000000E+00  0.00000000E+00  0.00000000E+00
  0.00000000E+00  0.00000000E+00  0.00000000E+00
  0.00000000E+00  0.00000000E+00  0.00000000E+00
  0.00000000E+00  0.00000000E+00  0.00000000E+00
  0.00000000E+00  0.00000000E+00  0.00000000E+00
  0.00000000E+00  0.00000000E+00  0.00000000E+00
  0.00000000E+00  0.00000000E+00  0.00000000E+00
  0.00000000E+00  0.00000000E+00  0.00000000E+00
  0.00000000E+00  0.00000000E+00  0.00000000E+00
  0.00000000E+00  0.00000000E+00  0.00000000E+00
  0.00000000E+00  0.00000000E+00  0.00000000E+00
  0.00000000E+00  0.00000000E+00  0.00000000E+00
  0.00000000E+00  0.00000000E+00  0.00000000E+00
  0.00000000E+00  0.00000000E+00  0.00000000E+00
  0.00000000E+00  0.00000000E+00  0.00000000E+00
  0.00000000E+00  0.00000000E+00  0.00000000E+00
  0.00000000E+00  0.00000000E+00  0.00000000E+00
  0.00000000E+00  0.00000000E+00  0.00000000E+00
  0.00000000E+00  0.00000000E+00  0.00000000E+00
  0.00000000E+00  0.00000000E+00  0.00000000E+00
  0.00000000E+00  0.00000000E+00  0.00000000E+00
  0.00000000E+00  0.00000000E+00  0.00000000E+00
  0.00000000E+00  0.00000000E+00  0.00000000E+00
  0.00000000E+00  0.00000000E+00  0.00000000E+00
  0.00000000E+00  0.00000000E+00  0.00000000E+00
  0.00000000E+00  0.00000000E+00  0.00000000E+00
  0.00000000E+00  0.00000000E+00  0.00000000E+00
  0.00000000E+00  0.00000000E+00  0.00000000E+00
  0.00000000E+00  0.00000000E+00  0.00000000E+00
  0.00000000E+00  0.00000000E+00  0.00000000E+00
  0.00000000E+00  0.00000000E+00  0.00000000E+00
  0.00000000E+00  0.00000000E+00  0.00000000E+00
  0.00000000E+00  0.00000000E+00  0.00000000E+00
  0.00000000E+00  0.00000000E+00  0.00000000E+00
  0.00000000E+00  0.00000000E+00  0.00000000E+00
  0.00000000E+00  0.00000000E+00  0.00000000E+00
  0.00000000E+00  0.00000000E+00  0.00000000E+00
  0.00000000E+00  0.00000000E+00  0.00000000E+00
  0.00000000E+00  0.00000000E+00  0.00000000E+00
  0.00000000E+00  0.00000000E+00  0.00000000E+00
  0.00000000E+00  0.00000000E+00  0.00000000E+00
  0.00000000E+00  0.00000000E+00  0.00000000E+00
  0.00000000E+00  0.00000000E+00  0.00000000E+00
  0.00000000E+00  0.00000000E+00  0.00000000E+00
  0.00000000E+00  0.00000000E+00  0.00000000E+00
  0.00000000E+00  0.00000000E+00  0.00000000E+00
  0.00000000E+00  0.00000000E+00  0.00000000E+00
  0.00000000E+00  0.00000000E+00  0.00000000E+00
  0.00000000E+00  0.00000000E+00  0.00000000E+00
  0.00000000E+00  0.00000000E+00  0.00000000E+00
  0.00000000E+00  0.00000000E+00  0.00000000E+00
  0.00000000E+00  0.00000000E+00  0.00000000E+00
  0.00000000E+00  0.00000000E+00  0.00000000E+00
  0.00000000E+00  0.00000000E+00  0.00000000E+00
  0.00000000E+00  0.00000000E+00  0.00000000E+00
  0.00000000E+00  0.00000000E+00  0.00000000E+00
  0.00000000E+00  0.00000000E+00  0.00000000E+00
  0.00000000E+00  0.00000000E+00  0.00000000E+00
  0.00000000E+00  0.00000000E+00  0.00000000E+00
  0.00000000E+00  0.00000000E+00  0.00000000E+00
  0.00000000E+00  0.00000000E+00  0.00000000E+00
  0.00000000E+00  0.00000000E+00  0.00000000E+00
  0.00000000E+00  0.00000000E+00  0.00000000E+00
  0.00000000E+00  0.00000000E+00  0.00000000E+00
  0.00000000E+00  0.00000000E+00  0.00000000E+00
  0.00000000E+00  0.00000000E+00  0.00000000E+00
  0.00000000E+00  0.00000000E+00  0.00000000E+00
  0.00000000E+00  0.00000000E+00  0.00000000E+00
  0.00000000E+00  0.00000000E+00  0.00000000E+00
  0.00000000E+00  0.00000000E+00  0.00000000E+00
  0.00000000E+00  0.00000000E+00  0.00000000E+00
  0.00000000E+00  0.00000000E+00  0.00000000E+00
  0.00000000E+00  0.00000000E+00  0.00000000E+00
  0.00000000E+00  0.00000000E+00  0.00000000E+00
  0.00000000E+00  0.00000000E+00  0.00000000E+00
  0.00000000E+00  0.00000000E+00  0.00000000E+00
  0.00000000E+00  0.00000000E+00  0.00000000E+00
  0.00000000E+00  0.00000000E+00  0.00000000E+00
  0.00000000E+00  0.00000000E+00  0.00000000E+00
  0.00000000E+00  0.00000000E+00  0.00000000E+00
  0.00000000E+00  0.00000000E+00  0.00000000E+00
  0.00000000E+00  0.00000000E+00  0.00000000E+00
  0.00000000E+00  0.00000000E+00  0.00000000E+00
  0.00000000E+00  0.00000000E+00  0.00000000E+00
  0.00000000E+00  0.00000000E+00  0.00000000E+00
  0.00000000E+00  0.00000000E+00  0.00000000E+00
  0.00000000E+00  0.00000000E+00  0.00000000E+00
  0.00000000E+00  0.00000000E+00  0.00000000E+00
  0.00000000E+00  0.00000000E+00  0.00000000E+00
  0.00000000E+00  0.00000000E+00  0.00000000E+00
  0.00000000E+00  0.00000000E+00  0.00000000E+00
  0.00000000E+00  0.00000000E+00  0.00000000E+00
  0.00000000E+00  0.00000000E+00  0.00000000E+00
  0.00000000E+00  0.00000000E+00  0.00000000E+00
  0.00000000E+00  0.00000000E+00  0.00000000E+00
  0.00000000E+00  0.00000000E+00  0.00000000E+00
  0.00000000E+00  0.00000000E+00  0.00000000E+00
  0.00000000E+00  0.00000000E+00  0.00000000E+00
  0.00000000E+00  0.00000000E+00  0.00000000E+00
  0.00000000E+00  0.00000000E+00  0.00000000E+00
  0.00000000E+00  0.00000000E+00  0.00000000E+00
  0.00000000E+00  0.00000000E+00  0.00000000E+00
  0.00000000E+00  0.00000000E+00  0.00000000E+00
  0.00000000E+00  0.00000000E+00  0.00000000E+00
  0.00000000E+00  0.00000000E+00  0.00000000E+00
  0.00000000E+00  0.00000000E+00  0.00000000E+00
  0.00000000E+00  0.00000000E+00  0.00000000E+00
  0.00000000E+00  0.00000000E+00  0.00000000E+00
  0.00000000E+00  0.00000000E+00  0.00000000E+00
  0.00000000E+00  0.00000000E+00  0.00000000E+00
  0.00000000E+00  0.00000000E+00  0.00000000E+00
  0.00000000E+00  0.00000000E+00  0.00000000E+00
  0.00000000E+00  0.00000000E+00  0.00000000E+00
  0.00000000E+00  0.00000000E+00  0.00000000E+00
  0.00000000E+00  0.00000000E+00  0.00000000E+00
  0.00000000E+00  0.00000000E+00  0.00000000E+00
  0.00000000E+00  0.00000000E+00  0.00000000E+00
  0.00000000E+00  0.00000000E+00  0.00000000E+00
  0.00000000E+00  0.00000000E+00  0.00000000E+00
  0.00000000E+00  0.00000000E+00  0.00000000E+00
  0.00000000E+00  0.00000000E+00  0.00000000E+00
  0.00000000E+00  0.00000000E+00  0.00000000E+00
  0.00000000E+00  0.00000000E+00  0.00000000E+00
  0.00000000E+00  0.00000000E+00  0.00000000E+00
  0.00000000E+00  0.00000000E+00  0.00000000E+00
  0.00000000E+00  0.00000000E+00  0.00000000E+00
  0.00000000E+00  0.00000000E+00  0.00000000E+00
  0.00000000E+00  0.00000000E+00  0.00000000E+00
  0.00000000E+00  0.00000000E+00  0.00000000E+00
  0.00000000E+00  0.00000000E+00  0.00000000E+00
  0.00000000E+00  0.00000000E+00  0.00000000E+00
  0.00000000E+00  0.00000000E+00  0.00000000E+00
  0.00000000E+00  0.00000000E+00  0.00000000E+00
  0.00000000E+00  0.00000000E+00  0.00000000E+00
  0.00000000E+00  0.00000000E+00  0.00000000E+00
  0.00000000E+00  0.00000000E+00  0.00000000E+00
  0.00000000E+00  0.00000000E+00  0.00000000E+00
  0.00000000E+00  0.00000000E+00  0.00000000E+00
  0.00000000E+00  0.00000000E+00  0.00000000E+00
  0.00000000E+00  0.00000000E+00  0.00000000E+00
  0.00000000E+00  0.00000000E+00  0.00000000E+00
  0.00000000E+00  0.00000000E+00  0.00000000E+00
  0.00000000E+00  0.00000000E+00  0.00000000E+00
  0.00000000E+00  0.00000000E+00  0.00000000E+00
  0.00000000E+00  0.00000000E+00  0.00000000E+00
  0.00000000E+00  0.00000000E+00  0.00000000E+00
  0.00000000E+00  0.00000000E+00  0.00000000E+00
  0.00000000E+00  0.00000000E+00  0.00000000E+00
  0.00000000E+00  0.00000000E+00  0.00000000E+00
  0.00000000E+00  0.00000000E+00  0.00000000E+00
  0.00000000E+00  0.00000000E+00  0.00000000E+00
  0.00000000E+00  0.00000000E+00  0.00000000E+00
  0.00000000E+00  0.00000000E+00  0.00000000E+00
  0.00000000E+00  0.00000000E+00  0.00000000E+00
  0.00000000E+00  0.00000000E+00  0.00000000E+00
  0.00000000E+00  0.00000000E+00  0.00000000E+00
  0.00000000E+00  0.00000000E+00  0.00000000E+00
  0.00000000E+00  0.00000000E+00  0.00000000E+00
  0.00000000E+00  0.00000000E+00  0.00000000E+00
  0.00000000E+00  0.00000000E+00  0.00000000E+00
  0.00000000E+00  0.00000000E+00  0.00000000E+00
  0.00000000E+00  0.00000000E+00  0.00000000E+00
  0.00000000E+00  0.00000000E+00  0.00000000E+00
  0.00000000E+00  0.00000000E+00  0.00000000E+00
  0.00000000E+00  0.00000000E+00  0.00000000E+00
  0.00000000E+00  0.00000000E+00  0.00000000E+00
  0.00000000E+00  0.00000000E+00  0.00000000E+00
  0.00000000E+00  0.00000000E+00  0.00000000E+00
  0.00000000E+00  0.00000000E+00  0.00000000E+00
  0.00000000E+00  0.00000000E+00  0.00000000E+00
  0.00000000E+00  0.00000000E+00  0.00000000E+00
  0.00000000E+00  0.00000000E+00  0.00000000E+00
  0.00000000E+00  0.00000000E+00  0.00000000E+00
  0.00000000E+00  0.00000000E+00  0.00000000E+00
  0.00000000E+00  0.00000000E+00  0.00000000E+00
  0.00000000E+00  0.00000000E+00  0.00000000E+00
  0.00000000E+00  0.00000000E+00  0.00000000E+00
  0.00000000E+00  0.00000000E+00  0.00000000E+00
  0.00000000E+00  0.00000000E+00  0.00000000E+00
  0.00000000E+00  0.00000000E+00  0.00000000E+00
  0.00000000E+00  0.00000000E+00  0.00000000E+00
  0.00000000E+00  0.00000000E+00  0.00000000E+00
  0.00000000E+00  0.00000000E+00  0.00000000E+00
  0.00000000E+00  0.00000000E+00  0.00000000E+00
  0.00000000E+00  0.00000000E+00  0.00000000E+00
  0.00000000E+00  0.00000000E+00  0.00000000E+00
  0.00000000E+00  0.00000000E+00  0.00000000E+00
  0.00000000E+00  0.00000000E+00  0.00000000E+00
  0.00000000E+00  0.00000000E+00  0.00000000E+00
  0.00000000E+00  0.00000000E+00  0.00000000E+00
  0.00000000E+00  0.00000000E+00  0.00000000E+00
  0.00000000E+00  0.00000000E+00  0.00000000E+00
  0.00000000E+00  0.00000000E+00  0.00000000E+00
  0.00000000E+00  0.00000000E+00  0.00000000E+00
  0.00000000E+00  0.00000000E+00  0.00000000E+00
  0.00000000E+00  0.00000000E+00  0.00000000E+00
  0.00000000E+00  0.00000000E+00  0.00000000E+00
  0.00000000E+00  0.00000000E+00  0.00000000E+00
  0.00000000E+00  0.00000000E+00  0.00000000E+00
  0.00000000E+00  0.00000000E+00  0.00000000E+00
  0.00000000E+00  0.00000000E+00  0.00000000E+00
