Zn96 H16 Pt4 O96                        
    1.000000000000000     
    12.9159910000000000    0.0000000000000000    0.0000000000000000
    -6.4575310000000004   11.1858439999999995    0.0000000000000000
     0.0000000000000000    0.0000000000000000   41.8715669999999989
   Zn   O    H    Pt   O    H 
    96    96    16     4     2     2
Selective dynamics
Direct
  0.0835826836151230  0.1679655045182929  0.4114532225378623   T   T   T
  0.0791944755221581  0.4142453282201890  0.4111914675339389   T   T   T
  0.0831690644872223  0.6702275855648629  0.4123260982056650   T   T   T
  0.0812736585026731  0.9186245481997680  0.4116197337975837   T   T   T
  0.3273838599434920  0.1624076482553760  0.4140070162688572   T   T   T
  0.3273662467488149  0.4196368840542689  0.4141284290447680   T   T   T
  0.3283794344758073  0.6715755703865178  0.4131648588349227   T   T   T
  0.3295624751493032  0.9166610613276828  0.4123219755126369   T   T   T
  0.5712054872067336  0.1509316149149153  0.4153311890766194   T   T   T
  0.5882993670831318  0.4115877991396982  0.4135289618608639   T   T   T
  0.5802898800232545  0.6725768937093936  0.4141340616345539   T   T   T
  0.5856839578716245  0.9208175815862930  0.4111713673834803   T   T   T
  0.8349578251002243  0.1648966310969902  0.4121795670070278   T   T   T
  0.8487773051002485  0.4284791273580444  0.4153126552305011   T   T   T
  0.8374351382919784  0.6724106773552831  0.4140061272712363   T   T   T
  0.8318856352622570  0.9163021908348215  0.4114697183620629   T   T   T
  0.1652302744064074  0.0826103940050724  0.3449143181366632   T   T   T
  0.1697062013790251  0.3364730402040534  0.3443857050997737   T   T   T
  0.1608082710229710  0.5885661839593095  0.3469942493948123   T   T   T
  0.1663817262606557  0.8333940788321846  0.3458118788220918   T   T   T
  0.4255635689528986  0.0903664803683394  0.3480995702308211   T   T   T
  0.4194066807940841  0.3384448596604885  0.3571088024197012   T   T   T
  0.4035432264206351  0.5962984758489003  0.3521665075191684   T   T   T
  0.4112521974609502  0.8390465828634608  0.3469924401459548   T   T   T
  0.6694437714649774  0.0709973798798767  0.3393663524159176   T   T   T
  0.7238207869407253  0.2755894477215245  0.3694686755724767   T   T   T
  0.6612612268954207  0.5804828282428899  0.3570937393168611   T   T   T
  0.6633062347743919  0.8301269418310847  0.3443932275883513   T   T   T
  0.9194487081777335  0.0803480699701409  0.3446621074581422   T   T   T
  0.9288959660641826  0.3302794843174056  0.3395354168403881   T   T   T
  0.9094719035049841  0.5741945645101060  0.3481028123505193   T   T   T
  0.9173152116801946  0.8348520633468602  0.3449839424944611   T   T   T
  0.0833420000000018  0.1666570000000007  0.5388639999999967   F   F   F
  0.0833420000000018  0.4166570000000007  0.5388639999999967   F   F   F
  0.0833420000000018  0.6666570000000007  0.5388639999999967   F   F   F
  0.0833420000000018  0.9166570000000007  0.5388639999999967   F   F   F
  0.3333420000000018  0.1666570000000007  0.5388639999999967   F   F   F
  0.3333420000000018  0.4166570000000007  0.5388639999999967   F   F   F
  0.3333420000000018  0.6666570000000007  0.5388639999999967   F   F   F
  0.3333420000000018  0.9166570000000007  0.5388639999999967   F   F   F
  0.5833420000000018  0.1666570000000007  0.5388639999999967   F   F   F
  0.5833420000000018  0.4166570000000007  0.5388639999999967   F   F   F
  0.5833420000000018  0.6666570000000007  0.5388639999999967   F   F   F
  0.5833420000000018  0.9166570000000007  0.5388639999999967   F   F   F
  0.8333420000000018  0.1666570000000007  0.5388639999999967   F   F   F
  0.8333420000000018  0.4166570000000007  0.5388639999999967   F   F   F
  0.8333420000000018  0.6666570000000007  0.5388639999999967   F   F   F
  0.8333420000000018  0.9166570000000007  0.5388639999999967   F   F   F
  0.1666570000000007  0.0833420000000018  0.4763639999999967   F   F   F
  0.1666570000000007  0.3333420000000018  0.4763639999999967   F   F   F
  0.1666570000000007  0.5833420000000018  0.4763639999999967   F   F   F
  0.1666570000000007  0.8333420000000018  0.4763639999999967   F   F   F
  0.4166570000000007  0.0833420000000018  0.4763639999999967   F   F   F
  0.4166570000000007  0.3333420000000018  0.4763639999999967   F   F   F
  0.4166570000000007  0.5833420000000018  0.4763639999999967   F   F   F
  0.4166570000000007  0.8333420000000018  0.4763639999999967   F   F   F
  0.6666570000000007  0.0833420000000018  0.4763639999999967   F   F   F
  0.6666570000000007  0.3333420000000018  0.4763639999999967   F   F   F
  0.6666570000000007  0.5833420000000018  0.4763639999999967   F   F   F
  0.6666570000000007  0.8333420000000018  0.4763639999999967   F   F   F
  0.9166570000000007  0.0833420000000018  0.4763639999999967   F   F   F
  0.9166570000000007  0.3333420000000018  0.4763639999999967   F   F   F
  0.9166570000000007  0.5833420000000018  0.4763639999999967   F   F   F
  0.9166570000000007  0.8333420000000018  0.4763639999999967   F   F   F
  0.0833420000000018  0.1666570000000007  0.6638639999999967   F   F   F
  0.0833420000000018  0.4166570000000007  0.6638639999999967   F   F   F
  0.0833420000000018  0.6666570000000007  0.6638639999999967   F   F   F
  0.0833420000000018  0.9166570000000007  0.6638639999999967   F   F   F
  0.3333420000000018  0.1666570000000007  0.6638639999999967   F   F   F
  0.3333420000000018  0.4166570000000007  0.6638639999999967   F   F   F
  0.3333420000000018  0.6666570000000007  0.6638639999999967   F   F   F
  0.3333420000000018  0.9166570000000007  0.6638639999999967   F   F   F
  0.5833420000000018  0.1666570000000007  0.6638639999999967   F   F   F
  0.5833420000000018  0.4166570000000007  0.6638639999999967   F   F   F
  0.5833420000000018  0.6666570000000007  0.6638639999999967   F   F   F
  0.5833420000000018  0.9166570000000007  0.6638639999999967   F   F   F
  0.8333420000000018  0.1666570000000007  0.6638639999999967   F   F   F
  0.8333420000000018  0.4166570000000007  0.6638639999999967   F   F   F
  0.8333420000000018  0.6666570000000007  0.6638639999999967   F   F   F
  0.8333420000000018  0.9166570000000007  0.6638639999999967   F   F   F
  0.1666570000000007  0.0833420000000018  0.6013639999999967   F   F   F
  0.1666570000000007  0.3333420000000018  0.6013639999999967   F   F   F
  0.1666570000000007  0.5833420000000018  0.6013639999999967   F   F   F
  0.1666570000000007  0.8333420000000018  0.6013639999999967   F   F   F
  0.4166570000000007  0.0833420000000018  0.6013639999999967   F   F   F
  0.4166570000000007  0.3333420000000018  0.6013639999999967   F   F   F
  0.4166570000000007  0.5833420000000018  0.6013639999999967   F   F   F
  0.4166570000000007  0.8333420000000018  0.6013639999999967   F   F   F
  0.6666570000000007  0.0833420000000018  0.6013639999999967   F   F   F
  0.6666570000000007  0.3333420000000018  0.6013639999999967   F   F   F
  0.6666570000000007  0.5833420000000018  0.6013639999999967   F   F   F
  0.6666570000000007  0.8333420000000018  0.6013639999999967   F   F   F
  0.9166570000000007  0.0833420000000018  0.6013639999999967   F   F   F
  0.9166570000000007  0.3333420000000018  0.6013639999999967   F   F   F
  0.9166570000000007  0.5833420000000018  0.6013639999999967   F   F   F
  0.9166570000000007  0.8333420000000018  0.6013639999999967   F   F   F
  0.0886541692281694  0.1710105152367034  0.3341544337009354   T   T   T
  0.0924692063241357  0.4255607702827855  0.3332815238808599   T   T   T
  0.0721448814503089  0.6661510439428929  0.3360598589267818   T   T   T
  0.0832052790363584  0.9165780852171491  0.3341301759089185   T   T   T
  0.3532634059777279  0.1885101948813750  0.3313776265642836   T   T   T
  0.3524085286678345  0.4307623729998432  0.3345573394235786   T   T   T
  0.3258874093318412  0.6739591113681799  0.3361121837240637   T   T   T
  0.3336127490200511  0.9276559933201273  0.3360734231744145   T   T   T
  0.5979301554003069  0.1867465081638046  0.3344698304528979   T   T   T
  0.6025308559908952  0.3972826833397560  0.3552514833628502   T   T   T
  0.5690339411009931  0.6473189826707345  0.3344850314953261   T   T   T
  0.5742404438498745  0.9073484503680432  0.3332652481203642   T   T   T
  0.8349187383330408  0.1648950592390115  0.3323943997315987   T   T   T
  0.8128758480302750  0.4016844899638008  0.3345314546425107   T   T   T
  0.8110264628270545  0.6461852865958405  0.3313119529995562   T   T   T
  0.8287394110743900  0.9111104426442977  0.3341446399643731   T   T   T
  0.1683463286724598  0.0853880044900184  0.3950023190170220   T   T   T
  0.1673499888511719  0.3355613437155477  0.3950827972883607   T   T   T
  0.1622318142648283  0.5825587904356975  0.3974797279118361   T   T   T
  0.1648064088216993  0.8349822056981637  0.3967817358292782   T   T   T
  0.4142641850399568  0.0860117170447480  0.3962925090408274   T   T   T
  0.4154576106681447  0.3350380595814050  0.4024783605198470   T   T   T
  0.4138334057812669  0.5861136913765899  0.3990372350786908   T   T   T
  0.4173550561193533  0.8377164450229093  0.3974786669561136   T   T   T
  0.6686652624216095  0.0913525764751306  0.3935756401730041   T   T   T
  0.6741456614604499  0.3255939633042044  0.4070208405740442   T   T   T
  0.6648192641144133  0.5844231915512976  0.4024622575724126   T   T   T
  0.6643032604957937  0.8325714349402924  0.3950750336459695   T   T   T
  0.9169824838209710  0.0828708306006738  0.3961781763988579   T   T   T
  0.9086796590121590  0.3312415136887307  0.3935933417812251   T   T   T
  0.9137993089353723  0.5855039419944358  0.3962891836489207   T   T   T
  0.9144398901727903  0.8314864473234054  0.3950194867903886   T   T   T
  0.0833220000000026  0.1666770000000000  0.4611360000000033   F   F   F
  0.0833220000000026  0.4166770000000000  0.4611360000000033   F   F   F
  0.0833220000000026  0.6666770000000000  0.4611360000000033   F   F   F
  0.0833220000000026  0.9166770000000000  0.4611360000000033   F   F   F
  0.3333220000000026  0.1666770000000000  0.4611360000000033   F   F   F
  0.3333220000000026  0.4166770000000000  0.4611360000000033   F   F   F
  0.3333220000000026  0.6666770000000000  0.4611360000000033   F   F   F
  0.3333220000000026  0.9166770000000000  0.4611360000000033   F   F   F
  0.5833220000000026  0.1666770000000000  0.4611360000000033   F   F   F
  0.5833220000000026  0.4166770000000000  0.4611360000000033   F   F   F
  0.5833220000000026  0.6666770000000000  0.4611360000000033   F   F   F
  0.5833220000000026  0.9166770000000000  0.4611360000000033   F   F   F
  0.8333220000000026  0.1666770000000000  0.4611360000000033   F   F   F
  0.8333220000000026  0.4166770000000000  0.4611360000000033   F   F   F
  0.8333220000000026  0.6666770000000000  0.4611360000000033   F   F   F
  0.8333220000000026  0.9166770000000000  0.4611360000000033   F   F   F
  0.1666770000000000  0.0833220000000026  0.5236360000000033   F   F   F
  0.1666770000000000  0.3333220000000026  0.5236360000000033   F   F   F
  0.1666770000000000  0.5833220000000026  0.5236360000000033   F   F   F
  0.1666770000000000  0.8333220000000026  0.5236360000000033   F   F   F
  0.4166770000000000  0.0833220000000026  0.5236360000000033   F   F   F
  0.4166770000000000  0.3333220000000026  0.5236360000000033   F   F   F
  0.4166770000000000  0.5833220000000026  0.5236360000000033   F   F   F
  0.4166770000000000  0.8333220000000026  0.5236360000000033   F   F   F
  0.6666770000000000  0.0833220000000026  0.5236360000000033   F   F   F
  0.6666770000000000  0.3333220000000026  0.5236360000000033   F   F   F
  0.6666770000000000  0.5833220000000026  0.5236360000000033   F   F   F
  0.6666770000000000  0.8333220000000026  0.5236360000000033   F   F   F
  0.9166770000000000  0.0833220000000026  0.5236360000000033   F   F   F
  0.9166770000000000  0.3333220000000026  0.5236360000000033   F   F   F
  0.9166770000000000  0.5833220000000026  0.5236360000000033   F   F   F
  0.9166770000000000  0.8333220000000026  0.5236360000000033   F   F   F
  0.0833220000000026  0.1666770000000000  0.5861360000000033   F   F   F
  0.0833220000000026  0.4166770000000000  0.5861360000000033   F   F   F
  0.0833220000000026  0.6666770000000000  0.5861360000000033   F   F   F
  0.0833220000000026  0.9166770000000000  0.5861360000000033   F   F   F
  0.3333220000000026  0.1666770000000000  0.5861360000000033   F   F   F
  0.3333220000000026  0.4166770000000000  0.5861360000000033   F   F   F
  0.3333220000000026  0.6666770000000000  0.5861360000000033   F   F   F
  0.3333220000000026  0.9166770000000000  0.5861360000000033   F   F   F
  0.5833220000000026  0.1666770000000000  0.5861360000000033   F   F   F
  0.5833220000000026  0.4166770000000000  0.5861360000000033   F   F   F
  0.5833220000000026  0.6666770000000000  0.5861360000000033   F   F   F
  0.5833220000000026  0.9166770000000000  0.5861360000000033   F   F   F
  0.8333220000000026  0.1666770000000000  0.5861360000000033   F   F   F
  0.8333220000000026  0.4166770000000000  0.5861360000000033   F   F   F
  0.8333220000000026  0.6666770000000000  0.5861360000000033   F   F   F
  0.8333220000000026  0.9166770000000000  0.5861360000000033   F   F   F
  0.1666770000000000  0.0833220000000026  0.6486360000000033   F   F   F
  0.1666770000000000  0.3333220000000026  0.6486360000000033   F   F   F
  0.1666770000000000  0.5833220000000026  0.6486360000000033   F   F   F
  0.1666770000000000  0.8333220000000026  0.6486360000000033   F   F   F
  0.4166770000000000  0.0833220000000026  0.6486360000000033   F   F   F
  0.4166770000000000  0.3333220000000026  0.6486360000000033   F   F   F
  0.4166770000000000  0.5833220000000026  0.6486360000000033   F   F   F
  0.4166770000000000  0.8333220000000026  0.6486360000000033   F   F   F
  0.6666770000000000  0.0833220000000026  0.6486360000000033   F   F   F
  0.6666770000000000  0.3333220000000026  0.6486360000000033   F   F   F
  0.6666770000000000  0.5833220000000026  0.6486360000000033   F   F   F
  0.6666770000000000  0.8333220000000026  0.6486360000000033   F   F   F
  0.9166770000000000  0.0833220000000026  0.6486360000000033   F   F   F
  0.9166770000000000  0.3333220000000026  0.6486360000000033   F   F   F
  0.9166770000000000  0.5833220000000026  0.6486360000000033   F   F   F
  0.9166770000000000  0.8333220000000026  0.6486360000000033   F   F   F
  0.0833420000000018  0.1666579999999982  0.7015940000000001   F   F   F
  0.0833420000000018  0.4166579999999982  0.7015940000000001   F   F   F
  0.0833420000000018  0.6666579999999982  0.7015940000000001   F   F   F
  0.0833420000000018  0.9166579999999982  0.7015940000000001   F   F   F
  0.3333420000000018  0.1666579999999982  0.7015940000000001   F   F   F
  0.3333420000000018  0.4166579999999982  0.7015940000000001   F   F   F
  0.3333420000000018  0.6666579999999982  0.7015940000000001   F   F   F
  0.3333420000000018  0.9166579999999982  0.7015940000000001   F   F   F
  0.5833420000000018  0.1666579999999982  0.7015940000000001   F   F   F
  0.5833420000000018  0.4166579999999982  0.7015940000000001   F   F   F
  0.5833420000000018  0.6666579999999982  0.7015940000000001   F   F   F
  0.5833420000000018  0.9166579999999982  0.7015940000000001   F   F   F
  0.8333420000000018  0.1666579999999982  0.7015940000000001   F   F   F
  0.8333420000000018  0.4166579999999982  0.7015940000000001   F   F   F
  0.8333420000000018  0.6666579999999982  0.7015940000000001   F   F   F
  0.8333420000000018  0.9166579999999982  0.7015940000000001   F   F   F
  0.7253568486578694  0.5655025887654849  0.2907584197880767   T   T   T
  0.5074676288384571  0.4921553099866465  0.3076215207553338   T   T   T
  0.6479824095880856  0.3518733483806099  0.3147570571646671   T   T   T
  0.4335603703996623  0.2747608625127319  0.2907812826447034   T   T   T
  0.4596228761467949  0.3009980663142398  0.2458821874774778   T   T   T
  0.6976969452859337  0.5401890167610149  0.2458027312897736   T   T   T
  0.5212596959487339  0.2845318802752478  0.2380326898073711   T   T   T
  0.7245276076128301  0.4867124428562615  0.2374673682616313   T   T   T
 
  0.00000000E+00  0.00000000E+00  0.00000000E+00
  0.00000000E+00  0.00000000E+00  0.00000000E+00
  0.00000000E+00  0.00000000E+00  0.00000000E+00
  0.00000000E+00  0.00000000E+00  0.00000000E+00
  0.00000000E+00  0.00000000E+00  0.00000000E+00
  0.00000000E+00  0.00000000E+00  0.00000000E+00
  0.00000000E+00  0.00000000E+00  0.00000000E+00
  0.00000000E+00  0.00000000E+00  0.00000000E+00
  0.00000000E+00  0.00000000E+00  0.00000000E+00
  0.00000000E+00  0.00000000E+00  0.00000000E+00
  0.00000000E+00  0.00000000E+00  0.00000000E+00
  0.00000000E+00  0.00000000E+00  0.00000000E+00
  0.00000000E+00  0.00000000E+00  0.00000000E+00
  0.00000000E+00  0.00000000E+00  0.00000000E+00
  0.00000000E+00  0.00000000E+00  0.00000000E+00
  0.00000000E+00  0.00000000E+00  0.00000000E+00
  0.00000000E+00  0.00000000E+00  0.00000000E+00
  0.00000000E+00  0.00000000E+00  0.00000000E+00
  0.00000000E+00  0.00000000E+00  0.00000000E+00
  0.00000000E+00  0.00000000E+00  0.00000000E+00
  0.00000000E+00  0.00000000E+00  0.00000000E+00
  0.00000000E+00  0.00000000E+00  0.00000000E+00
  0.00000000E+00  0.00000000E+00  0.00000000E+00
  0.00000000E+00  0.00000000E+00  0.00000000E+00
  0.00000000E+00  0.00000000E+00  0.00000000E+00
  0.00000000E+00  0.00000000E+00  0.00000000E+00
  0.00000000E+00  0.00000000E+00  0.00000000E+00
  0.00000000E+00  0.00000000E+00  0.00000000E+00
  0.00000000E+00  0.00000000E+00  0.00000000E+00
  0.00000000E+00  0.00000000E+00  0.00000000E+00
  0.00000000E+00  0.00000000E+00  0.00000000E+00
  0.00000000E+00  0.00000000E+00  0.00000000E+00
  0.00000000E+00  0.00000000E+00  0.00000000E+00
  0.00000000E+00  0.00000000E+00  0.00000000E+00
  0.00000000E+00  0.00000000E+00  0.00000000E+00
  0.00000000E+00  0.00000000E+00  0.00000000E+00
  0.00000000E+00  0.00000000E+00  0.00000000E+00
  0.00000000E+00  0.00000000E+00  0.00000000E+00
  0.00000000E+00  0.00000000E+00  0.00000000E+00
  0.00000000E+00  0.00000000E+00  0.00000000E+00
  0.00000000E+00  0.00000000E+00  0.00000000E+00
  0.00000000E+00  0.00000000E+00  0.00000000E+00
  0.00000000E+00  0.00000000E+00  0.00000000E+00
  0.00000000E+00  0.00000000E+00  0.00000000E+00
  0.00000000E+00  0.00000000E+00  0.00000000E+00
  0.00000000E+00  0.00000000E+00  0.00000000E+00
  0.00000000E+00  0.00000000E+00  0.00000000E+00
  0.00000000E+00  0.00000000E+00  0.00000000E+00
  0.00000000E+00  0.00000000E+00  0.00000000E+00
  0.00000000E+00  0.00000000E+00  0.00000000E+00
  0.00000000E+00  0.00000000E+00  0.00000000E+00
  0.00000000E+00  0.00000000E+00  0.00000000E+00
  0.00000000E+00  0.00000000E+00  0.00000000E+00
  0.00000000E+00  0.00000000E+00  0.00000000E+00
  0.00000000E+00  0.00000000E+00  0.00000000E+00
  0.00000000E+00  0.00000000E+00  0.00000000E+00
  0.00000000E+00  0.00000000E+00  0.00000000E+00
  0.00000000E+00  0.00000000E+00  0.00000000E+00
  0.00000000E+00  0.00000000E+00  0.00000000E+00
  0.00000000E+00  0.00000000E+00  0.00000000E+00
  0.00000000E+00  0.00000000E+00  0.00000000E+00
  0.00000000E+00  0.00000000E+00  0.00000000E+00
  0.00000000E+00  0.00000000E+00  0.00000000E+00
  0.00000000E+00  0.00000000E+00  0.00000000E+00
  0.00000000E+00  0.00000000E+00  0.00000000E+00
  0.00000000E+00  0.00000000E+00  0.00000000E+00
  0.00000000E+00  0.00000000E+00  0.00000000E+00
  0.00000000E+00  0.00000000E+00  0.00000000E+00
  0.00000000E+00  0.00000000E+00  0.00000000E+00
  0.00000000E+00  0.00000000E+00  0.00000000E+00
  0.00000000E+00  0.00000000E+00  0.00000000E+00
  0.00000000E+00  0.00000000E+00  0.00000000E+00
  0.00000000E+00  0.00000000E+00  0.00000000E+00
  0.00000000E+00  0.00000000E+00  0.00000000E+00
  0.00000000E+00  0.00000000E+00  0.00000000E+00
  0.00000000E+00  0.00000000E+00  0.00000000E+00
  0.00000000E+00  0.00000000E+00  0.00000000E+00
  0.00000000E+00  0.00000000E+00  0.00000000E+00
  0.00000000E+00  0.00000000E+00  0.00000000E+00
  0.00000000E+00  0.00000000E+00  0.00000000E+00
  0.00000000E+00  0.00000000E+00  0.00000000E+00
  0.00000000E+00  0.00000000E+00  0.00000000E+00
  0.00000000E+00  0.00000000E+00  0.00000000E+00
  0.00000000E+00  0.00000000E+00  0.00000000E+00
  0.00000000E+00  0.00000000E+00  0.00000000E+00
  0.00000000E+00  0.00000000E+00  0.00000000E+00
  0.00000000E+00  0.00000000E+00  0.00000000E+00
  0.00000000E+00  0.00000000E+00  0.00000000E+00
  0.00000000E+00  0.00000000E+00  0.00000000E+00
  0.00000000E+00  0.00000000E+00  0.00000000E+00
  0.00000000E+00  0.00000000E+00  0.00000000E+00
  0.00000000E+00  0.00000000E+00  0.00000000E+00
  0.00000000E+00  0.00000000E+00  0.00000000E+00
  0.00000000E+00  0.00000000E+00  0.00000000E+00
  0.00000000E+00  0.00000000E+00  0.00000000E+00
  0.00000000E+00  0.00000000E+00  0.00000000E+00
  0.00000000E+00  0.00000000E+00  0.00000000E+00
  0.00000000E+00  0.00000000E+00  0.00000000E+00
  0.00000000E+00  0.00000000E+00  0.00000000E+00
  0.00000000E+00  0.00000000E+00  0.00000000E+00
  0.00000000E+00  0.00000000E+00  0.00000000E+00
  0.00000000E+00  0.00000000E+00  0.00000000E+00
  0.00000000E+00  0.00000000E+00  0.00000000E+00
  0.00000000E+00  0.00000000E+00  0.00000000E+00
  0.00000000E+00  0.00000000E+00  0.00000000E+00
  0.00000000E+00  0.00000000E+00  0.00000000E+00
  0.00000000E+00  0.00000000E+00  0.00000000E+00
  0.00000000E+00  0.00000000E+00  0.00000000E+00
  0.00000000E+00  0.00000000E+00  0.00000000E+00
  0.00000000E+00  0.00000000E+00  0.00000000E+00
  0.00000000E+00  0.00000000E+00  0.00000000E+00
  0.00000000E+00  0.00000000E+00  0.00000000E+00
  0.00000000E+00  0.00000000E+00  0.00000000E+00
  0.00000000E+00  0.00000000E+00  0.00000000E+00
  0.00000000E+00  0.00000000E+00  0.00000000E+00
  0.00000000E+00  0.00000000E+00  0.00000000E+00
  0.00000000E+00  0.00000000E+00  0.00000000E+00
  0.00000000E+00  0.00000000E+00  0.00000000E+00
  0.00000000E+00  0.00000000E+00  0.00000000E+00
  0.00000000E+00  0.00000000E+00  0.00000000E+00
  0.00000000E+00  0.00000000E+00  0.00000000E+00
  0.00000000E+00  0.00000000E+00  0.00000000E+00
  0.00000000E+00  0.00000000E+00  0.00000000E+00
  0.00000000E+00  0.00000000E+00  0.00000000E+00
  0.00000000E+00  0.00000000E+00  0.00000000E+00
  0.00000000E+00  0.00000000E+00  0.00000000E+00
  0.00000000E+00  0.00000000E+00  0.00000000E+00
  0.00000000E+00  0.00000000E+00  0.00000000E+00
  0.00000000E+00  0.00000000E+00  0.00000000E+00
  0.00000000E+00  0.00000000E+00  0.00000000E+00
  0.00000000E+00  0.00000000E+00  0.00000000E+00
  0.00000000E+00  0.00000000E+00  0.00000000E+00
  0.00000000E+00  0.00000000E+00  0.00000000E+00
  0.00000000E+00  0.00000000E+00  0.00000000E+00
  0.00000000E+00  0.00000000E+00  0.00000000E+00
  0.00000000E+00  0.00000000E+00  0.00000000E+00
  0.00000000E+00  0.00000000E+00  0.00000000E+00
  0.00000000E+00  0.00000000E+00  0.00000000E+00
  0.00000000E+00  0.00000000E+00  0.00000000E+00
  0.00000000E+00  0.00000000E+00  0.00000000E+00
  0.00000000E+00  0.00000000E+00  0.00000000E+00
  0.00000000E+00  0.00000000E+00  0.00000000E+00
  0.00000000E+00  0.00000000E+00  0.00000000E+00
  0.00000000E+00  0.00000000E+00  0.00000000E+00
  0.00000000E+00  0.00000000E+00  0.00000000E+00
  0.00000000E+00  0.00000000E+00  0.00000000E+00
  0.00000000E+00  0.00000000E+00  0.00000000E+00
  0.00000000E+00  0.00000000E+00  0.00000000E+00
  0.00000000E+00  0.00000000E+00  0.00000000E+00
  0.00000000E+00  0.00000000E+00  0.00000000E+00
  0.00000000E+00  0.00000000E+00  0.00000000E+00
  0.00000000E+00  0.00000000E+00  0.00000000E+00
  0.00000000E+00  0.00000000E+00  0.00000000E+00
  0.00000000E+00  0.00000000E+00  0.00000000E+00
  0.00000000E+00  0.00000000E+00  0.00000000E+00
  0.00000000E+00  0.00000000E+00  0.00000000E+00
  0.00000000E+00  0.00000000E+00  0.00000000E+00
  0.00000000E+00  0.00000000E+00  0.00000000E+00
  0.00000000E+00  0.00000000E+00  0.00000000E+00
  0.00000000E+00  0.00000000E+00  0.00000000E+00
  0.00000000E+00  0.00000000E+00  0.00000000E+00
  0.00000000E+00  0.00000000E+00  0.00000000E+00
  0.00000000E+00  0.00000000E+00  0.00000000E+00
  0.00000000E+00  0.00000000E+00  0.00000000E+00
  0.00000000E+00  0.00000000E+00  0.00000000E+00
  0.00000000E+00  0.00000000E+00  0.00000000E+00
  0.00000000E+00  0.00000000E+00  0.00000000E+00
  0.00000000E+00  0.00000000E+00  0.00000000E+00
  0.00000000E+00  0.00000000E+00  0.00000000E+00
  0.00000000E+00  0.00000000E+00  0.00000000E+00
  0.00000000E+00  0.00000000E+00  0.00000000E+00
  0.00000000E+00  0.00000000E+00  0.00000000E+00
  0.00000000E+00  0.00000000E+00  0.00000000E+00
  0.00000000E+00  0.00000000E+00  0.00000000E+00
  0.00000000E+00  0.00000000E+00  0.00000000E+00
  0.00000000E+00  0.00000000E+00  0.00000000E+00
  0.00000000E+00  0.00000000E+00  0.00000000E+00
  0.00000000E+00  0.00000000E+00  0.00000000E+00
  0.00000000E+00  0.00000000E+00  0.00000000E+00
  0.00000000E+00  0.00000000E+00  0.00000000E+00
  0.00000000E+00  0.00000000E+00  0.00000000E+00
  0.00000000E+00  0.00000000E+00  0.00000000E+00
  0.00000000E+00  0.00000000E+00  0.00000000E+00
  0.00000000E+00  0.00000000E+00  0.00000000E+00
  0.00000000E+00  0.00000000E+00  0.00000000E+00
  0.00000000E+00  0.00000000E+00  0.00000000E+00
  0.00000000E+00  0.00000000E+00  0.00000000E+00
  0.00000000E+00  0.00000000E+00  0.00000000E+00
  0.00000000E+00  0.00000000E+00  0.00000000E+00
  0.00000000E+00  0.00000000E+00  0.00000000E+00
  0.00000000E+00  0.00000000E+00  0.00000000E+00
  0.00000000E+00  0.00000000E+00  0.00000000E+00
  0.00000000E+00  0.00000000E+00  0.00000000E+00
  0.00000000E+00  0.00000000E+00  0.00000000E+00
  0.00000000E+00  0.00000000E+00  0.00000000E+00
  0.00000000E+00  0.00000000E+00  0.00000000E+00
  0.00000000E+00  0.00000000E+00  0.00000000E+00
  0.00000000E+00  0.00000000E+00  0.00000000E+00
  0.00000000E+00  0.00000000E+00  0.00000000E+00
  0.00000000E+00  0.00000000E+00  0.00000000E+00
  0.00000000E+00  0.00000000E+00  0.00000000E+00
  0.00000000E+00  0.00000000E+00  0.00000000E+00
  0.00000000E+00  0.00000000E+00  0.00000000E+00
  0.00000000E+00  0.00000000E+00  0.00000000E+00
  0.00000000E+00  0.00000000E+00  0.00000000E+00
  0.00000000E+00  0.00000000E+00  0.00000000E+00
  0.00000000E+00  0.00000000E+00  0.00000000E+00
  0.00000000E+00  0.00000000E+00  0.00000000E+00
  0.00000000E+00  0.00000000E+00  0.00000000E+00
  0.00000000E+00  0.00000000E+00  0.00000000E+00
  0.00000000E+00  0.00000000E+00  0.00000000E+00
  0.00000000E+00  0.00000000E+00  0.00000000E+00
  0.00000000E+00  0.00000000E+00  0.00000000E+00
  0.00000000E+00  0.00000000E+00  0.00000000E+00
  0.00000000E+00  0.00000000E+00  0.00000000E+00
  0.00000000E+00  0.00000000E+00  0.00000000E+00
