ZnH4                                    
   1.00000000000000     
    13.0000000000000000    0.0000000000000000    0.0000000000000000
     0.0000000000000000   14.0000000000000000    0.0000000000000000
     0.0000000000000000    0.0000000000000000   15.0000000000000000
   Zn   H 
     1     4
Selective dynamics
Direct
  0.3726053846153832  0.3329042857142852  0.6997500000000016   F   F   F
  0.3725937847398626  0.3329268433659180  0.8068763738557578   T   T   T
  0.3726187917558264  0.4412469470146263  0.6644951309962011   T   T   T
  0.4736477559859438  0.2787333811086299  0.6645048075625013   T   T   T
  0.2715662304349991  0.2787373128013400  0.6644932495414579   T   T   T
 
  0.00000000E+00  0.00000000E+00  0.00000000E+00
  0.00000000E+00  0.00000000E+00  0.00000000E+00
  0.00000000E+00  0.00000000E+00  0.00000000E+00
  0.00000000E+00  0.00000000E+00  0.00000000E+00
  0.00000000E+00  0.00000000E+00  0.00000000E+00
