ZnH4
1.0
13 0 0
0 14 0
0 0 15
Zn H
 1 4
Selective Dynamics
Cartesian
  4.84387   4.66066  10.49625  F F F
  4.84348   4.66089  12.47559  T T T
  4.84397   6.52496   9.85862  T T T
  6.45836   3.72849   9.85862  T T T
  3.22936   3.72849   9.85862  T T T
