Zn6 O6                                  
    1.000000000000000     
     3.2289976818084343    0.0000000000000000    0.0000000000000002
    -1.6143825250830863    2.7964612079512898    0.0000000000000002
     0.0000000000000000    0.0000000000000000   41.8715658066988325
   Zn   O    H 
     6     6     1
Selective dynamics
Direct
  0.3333454425459156  0.6666517228918604  0.4126959268448496   T   T   T
  0.6666407084545921  0.3333569686397307  0.3478269152788230   T   T   T
  0.3333685824733266  0.6666275026324087  0.5388641089449635   F   F   F
  0.6666270857558700  0.3333693954645440  0.4763640990662594   F   F   F
  0.3333680848141398  0.6666271476303436  0.6638641089449635   F   F   F
  0.6666265880966904  0.3333690404624718  0.6013640990662594   F   F   F
  0.3333107470222063  0.6666861464048969  0.3390779962204808   T   T   T
  0.6666864940845353  0.3333107236776195  0.3984600301579315   T   T   T
  0.3332888030792915  0.6667082672946592  0.4611358956743672   F   F   F
  0.6667075061445473  0.3332891545752972  0.5236358963144099   F   F   F
  0.3332883054201048  0.6667079122925870  0.5861358956743672   F   F   F
  0.6667070084853677  0.3332887995732250  0.6486358963144099   F   F   F
  0.3333700000000022  0.6666299999999978  0.7015944380000008   F   F   F
 
  0.00000000E+00  0.00000000E+00  0.00000000E+00
  0.00000000E+00  0.00000000E+00  0.00000000E+00
  0.00000000E+00  0.00000000E+00  0.00000000E+00
  0.00000000E+00  0.00000000E+00  0.00000000E+00
  0.00000000E+00  0.00000000E+00  0.00000000E+00
  0.00000000E+00  0.00000000E+00  0.00000000E+00
  0.00000000E+00  0.00000000E+00  0.00000000E+00
  0.00000000E+00  0.00000000E+00  0.00000000E+00
  0.00000000E+00  0.00000000E+00  0.00000000E+00
  0.00000000E+00  0.00000000E+00  0.00000000E+00
  0.00000000E+00  0.00000000E+00  0.00000000E+00
  0.00000000E+00  0.00000000E+00  0.00000000E+00
  0.00000000E+00  0.00000000E+00  0.00000000E+00
