ZnH4                                    
   1.00000000000000     
    13.0000000000000000    0.0000000000000000    0.0000000000000000
     0.0000000000000000   14.0000000000000000    0.0000000000000000
     0.0000000000000000    0.0000000000000000   15.0000000000000000
   O    H 
     1     4
Selective dynamics
Direct
  0.2484123076923055  0.2663207142857118  0.3083113333333358   F   F   F
  0.2479470324070192  0.2658379507523563  0.2433944440318072   T   T   T
  0.1287118083634837  0.3296586346786867  0.2794659780391839   T   T   T
  0.3682236140289703  0.3284845376976264  0.2810379995224892   T   T   T
  0.2489216418563913  0.1385375610680697  0.2834839271128331   T   T   T
 
  0.00000000E+00  0.00000000E+00  0.00000000E+00
  0.00000000E+00  0.00000000E+00  0.00000000E+00
  0.00000000E+00  0.00000000E+00  0.00000000E+00
  0.00000000E+00  0.00000000E+00  0.00000000E+00
  0.00000000E+00  0.00000000E+00  0.00000000E+00
