Zn96 H16 Pt4 O96                        
    1.000000000000000     
    12.9159910000000000    0.0000000000000000    0.0000000000000000
    -6.4575310000000004   11.1858439999999995    0.0000000000000000
     0.0000000000000000    0.0000000000000000   41.8715669999999989
   Zn   O    H    Pt   O H
    96    96    16     4     1 2
Selective dynamics
Direct
  0.0842898298495314  0.1684584827148115  0.4115312071061226   T   T   T
  0.0786448501332018  0.4134617872927251  0.4109949059300604   T   T   T
  0.0839726669096805  0.6698500630028192  0.4123757427192629   T   T   T
  0.0820094837914240  0.9182078146101631  0.4117092135298890   T   T   T
  0.3280057531230369  0.1626217389995546  0.4140068585316925   T   T   T
  0.3273844659535001  0.4187089245362188  0.4141923972871808   T   T   T
  0.3285742086597239  0.6715975423090583  0.4132089274817474   T   T   T
  0.3302273299363137  0.9165391255166924  0.4122557085682459   T   T   T
  0.5712018179526197  0.1517544861352675  0.4152353569887097   T   T   T
  0.5900811205502379  0.4099624120505183  0.4130821985188149   T   T   T
  0.5804927441290459  0.6710950166292946  0.4141046335288152   T   T   T
  0.5864926829454760  0.9217724997760541  0.4110800797363083   T   T   T
  0.8362378920068352  0.1635000192755101  0.4127454445416276   T   T   T
  0.8474181147174278  0.4273721367711545  0.4151430291112845   T   T   T
  0.8380849749783224  0.6727424218682856  0.4140368454742998   T   T   T
  0.8319793608704984  0.9153535418338663  0.4115733746668297   T   T   T
  0.1610065596847008  0.0820160029558679  0.3453492035547612   T   T   T
  0.1701233329474974  0.3372629248338512  0.3441466922416936   T   T   T
  0.1615261028095460  0.5887435677522532  0.3468126271364298   T   T   T
  0.1673318206484211  0.8336834191445988  0.3457026062399393   T   T   T
  0.4267001030461444  0.0908431620199082  0.3480452330742025   T   T   T
  0.4192355322476189  0.3420853761637517  0.3569425383552485   T   T   T
  0.4015727669336684  0.5952071571078648  0.3526851467631431   T   T   T
  0.4117525667474098  0.8393734034212130  0.3469210859869989   T   T   T
  0.6661275237233681  0.0696465153065446  0.3337436114846710   T   T   T
  0.7334355675285451  0.2635388775221941  0.3703775291199349   T   T   T
  0.6661960168486587  0.5824238402324085  0.3568396343087699   T   T   T
  0.6632199073739002  0.8305503330684587  0.3452744958827481   T   T   T
  0.9177439538508523  0.0814079448459992  0.3452922597206438   T   T   T
  0.9303089611341591  0.3330437794752612  0.3351919626791897   T   T   T
  0.9117584638868763  0.5722116101274253  0.3486356789882450   T   T   T
  0.9208537879711898  0.8407977012148393  0.3446736696997306   T   T   T
  0.0833420000000018  0.1666570000000007  0.5388639999999967   F   F   F
  0.0833420000000018  0.4166570000000007  0.5388639999999967   F   F   F
  0.0833420000000018  0.6666570000000007  0.5388639999999967   F   F   F
  0.0833420000000018  0.9166570000000007  0.5388639999999967   F   F   F
  0.3333420000000018  0.1666570000000007  0.5388639999999967   F   F   F
  0.3333420000000018  0.4166570000000007  0.5388639999999967   F   F   F
  0.3333420000000018  0.6666570000000007  0.5388639999999967   F   F   F
  0.3333420000000018  0.9166570000000007  0.5388639999999967   F   F   F
  0.5833420000000018  0.1666570000000007  0.5388639999999967   F   F   F
  0.5833420000000018  0.4166570000000007  0.5388639999999967   F   F   F
  0.5833420000000018  0.6666570000000007  0.5388639999999967   F   F   F
  0.5833420000000018  0.9166570000000007  0.5388639999999967   F   F   F
  0.8333420000000018  0.1666570000000007  0.5388639999999967   F   F   F
  0.8333420000000018  0.4166570000000007  0.5388639999999967   F   F   F
  0.8333420000000018  0.6666570000000007  0.5388639999999967   F   F   F
  0.8333420000000018  0.9166570000000007  0.5388639999999967   F   F   F
  0.1666570000000007  0.0833420000000018  0.4763639999999967   F   F   F
  0.1666570000000007  0.3333420000000018  0.4763639999999967   F   F   F
  0.1666570000000007  0.5833420000000018  0.4763639999999967   F   F   F
  0.1666570000000007  0.8333420000000018  0.4763639999999967   F   F   F
  0.4166570000000007  0.0833420000000018  0.4763639999999967   F   F   F
  0.4166570000000007  0.3333420000000018  0.4763639999999967   F   F   F
  0.4166570000000007  0.5833420000000018  0.4763639999999967   F   F   F
  0.4166570000000007  0.8333420000000018  0.4763639999999967   F   F   F
  0.6666570000000007  0.0833420000000018  0.4763639999999967   F   F   F
  0.6666570000000007  0.3333420000000018  0.4763639999999967   F   F   F
  0.6666570000000007  0.5833420000000018  0.4763639999999967   F   F   F
  0.6666570000000007  0.8333420000000018  0.4763639999999967   F   F   F
  0.9166570000000007  0.0833420000000018  0.4763639999999967   F   F   F
  0.9166570000000007  0.3333420000000018  0.4763639999999967   F   F   F
  0.9166570000000007  0.5833420000000018  0.4763639999999967   F   F   F
  0.9166570000000007  0.8333420000000018  0.4763639999999967   F   F   F
  0.0833420000000018  0.1666570000000007  0.6638639999999967   F   F   F
  0.0833420000000018  0.4166570000000007  0.6638639999999967   F   F   F
  0.0833420000000018  0.6666570000000007  0.6638639999999967   F   F   F
  0.0833420000000018  0.9166570000000007  0.6638639999999967   F   F   F
  0.3333420000000018  0.1666570000000007  0.6638639999999967   F   F   F
  0.3333420000000018  0.4166570000000007  0.6638639999999967   F   F   F
  0.3333420000000018  0.6666570000000007  0.6638639999999967   F   F   F
  0.3333420000000018  0.9166570000000007  0.6638639999999967   F   F   F
  0.5833420000000018  0.1666570000000007  0.6638639999999967   F   F   F
  0.5833420000000018  0.4166570000000007  0.6638639999999967   F   F   F
  0.5833420000000018  0.6666570000000007  0.6638639999999967   F   F   F
  0.5833420000000018  0.9166570000000007  0.6638639999999967   F   F   F
  0.8333420000000018  0.1666570000000007  0.6638639999999967   F   F   F
  0.8333420000000018  0.4166570000000007  0.6638639999999967   F   F   F
  0.8333420000000018  0.6666570000000007  0.6638639999999967   F   F   F
  0.8333420000000018  0.9166570000000007  0.6638639999999967   F   F   F
  0.1666570000000007  0.0833420000000018  0.6013639999999967   F   F   F
  0.1666570000000007  0.3333420000000018  0.6013639999999967   F   F   F
  0.1666570000000007  0.5833420000000018  0.6013639999999967   F   F   F
  0.1666570000000007  0.8333420000000018  0.6013639999999967   F   F   F
  0.4166570000000007  0.0833420000000018  0.6013639999999967   F   F   F
  0.4166570000000007  0.3333420000000018  0.6013639999999967   F   F   F
  0.4166570000000007  0.5833420000000018  0.6013639999999967   F   F   F
  0.4166570000000007  0.8333420000000018  0.6013639999999967   F   F   F
  0.6666570000000007  0.0833420000000018  0.6013639999999967   F   F   F
  0.6666570000000007  0.3333420000000018  0.6013639999999967   F   F   F
  0.6666570000000007  0.5833420000000018  0.6013639999999967   F   F   F
  0.6666570000000007  0.8333420000000018  0.6013639999999967   F   F   F
  0.9166570000000007  0.0833420000000018  0.6013639999999967   F   F   F
  0.9166570000000007  0.3333420000000018  0.6013639999999967   F   F   F
  0.9166570000000007  0.5833420000000018  0.6013639999999967   F   F   F
  0.9166570000000007  0.8333420000000018  0.6013639999999967   F   F   F
  0.0867185826902315  0.1713706613657422  0.3342198024608010   T   T   T
  0.0938385221814784  0.4267199445050949  0.3322693121870515   T   T   T
  0.0731521235929620  0.6666902293821195  0.3359622691954698   T   T   T
  0.0856695251383925  0.9179460047673587  0.3336341478096756   T   T   T
  0.3607116111136008  0.1938109841521722  0.3295605564831376   T   T   T
  0.3493514161562956  0.4308554570679632  0.3345921743825144   T   T   T
  0.3265935291753337  0.6744706397773825  0.3359988468226547   T   T   T
  0.3345007872040142  0.9283447933030686  0.3361440444457600   T   T   T
  0.5990536008857106  0.1842408786743732  0.3348302968171168   T   T   T
  0.6014575648555152  0.3998159654661038  0.3555250793972604   T   T   T
  0.5686880630158413  0.6468480586302192  0.3354316209810335   T   T   T
  0.5737797867931747  0.9055385217068093  0.3322103450315623   T   T   T
  0.8331119194434393  0.1662230812584369  0.3326474966392396   T   T   T
  0.8159775209314546  0.3998249289213192  0.3358966823569816   T   T   T
  0.8172584474426685  0.6508349320329572  0.3299607635679820   T   T   T
  0.8280727873207852  0.9122693340751198  0.3341840862522645   T   T   T
  0.1687307988285767  0.0853577801272820  0.3949288446144976   T   T   T
  0.1676708385705865  0.3354058533564412  0.3949662854028162   T   T   T
  0.1626237573832015  0.5820407349845951  0.3972970991408715   T   T   T
  0.1652495348084528  0.8346737627352567  0.3967854121363956   T   T   T
  0.4140244974944665  0.0858082929526134  0.3961262642748338   T   T   T
  0.4158563368667174  0.3346448924771508  0.4022629486146343   T   T   T
  0.4137460302414411  0.5855247115044833  0.3993597634973014   T   T   T
  0.4180378980917183  0.8375920977474109  0.3973305411146484   T   T   T
  0.6700239614953816  0.0914954080156818  0.3946575573045337   T   T   T
  0.6753039022168466  0.3239144457437249  0.4054880022188527   T   T   T
  0.6658750884959730  0.5841197388360158  0.4022848205954546   T   T   T
  0.6642145615663964  0.8319088714374701  0.3952936069341391   T   T   T
  0.9176739444964497  0.0818318474380035  0.3962345476877047   T   T   T
  0.9088927457392515  0.3296091045330840  0.3945542809945266   T   T   T
  0.9143495173844371  0.5856107279306642  0.3964470324877567   T   T   T
  0.9152872771552936  0.8316085361137127  0.3946655047160164   T   T   T
  0.0833220000000026  0.1666770000000000  0.4611360000000033   F   F   F
  0.0833220000000026  0.4166770000000000  0.4611360000000033   F   F   F
  0.0833220000000026  0.6666770000000000  0.4611360000000033   F   F   F
  0.0833220000000026  0.9166770000000000  0.4611360000000033   F   F   F
  0.3333220000000026  0.1666770000000000  0.4611360000000033   F   F   F
  0.3333220000000026  0.4166770000000000  0.4611360000000033   F   F   F
  0.3333220000000026  0.6666770000000000  0.4611360000000033   F   F   F
  0.3333220000000026  0.9166770000000000  0.4611360000000033   F   F   F
  0.5833220000000026  0.1666770000000000  0.4611360000000033   F   F   F
  0.5833220000000026  0.4166770000000000  0.4611360000000033   F   F   F
  0.5833220000000026  0.6666770000000000  0.4611360000000033   F   F   F
  0.5833220000000026  0.9166770000000000  0.4611360000000033   F   F   F
  0.8333220000000026  0.1666770000000000  0.4611360000000033   F   F   F
  0.8333220000000026  0.4166770000000000  0.4611360000000033   F   F   F
  0.8333220000000026  0.6666770000000000  0.4611360000000033   F   F   F
  0.8333220000000026  0.9166770000000000  0.4611360000000033   F   F   F
  0.1666770000000000  0.0833220000000026  0.5236360000000033   F   F   F
  0.1666770000000000  0.3333220000000026  0.5236360000000033   F   F   F
  0.1666770000000000  0.5833220000000026  0.5236360000000033   F   F   F
  0.1666770000000000  0.8333220000000026  0.5236360000000033   F   F   F
  0.4166770000000000  0.0833220000000026  0.5236360000000033   F   F   F
  0.4166770000000000  0.3333220000000026  0.5236360000000033   F   F   F
  0.4166770000000000  0.5833220000000026  0.5236360000000033   F   F   F
  0.4166770000000000  0.8333220000000026  0.5236360000000033   F   F   F
  0.6666770000000000  0.0833220000000026  0.5236360000000033   F   F   F
  0.6666770000000000  0.3333220000000026  0.5236360000000033   F   F   F
  0.6666770000000000  0.5833220000000026  0.5236360000000033   F   F   F
  0.6666770000000000  0.8333220000000026  0.5236360000000033   F   F   F
  0.9166770000000000  0.0833220000000026  0.5236360000000033   F   F   F
  0.9166770000000000  0.3333220000000026  0.5236360000000033   F   F   F
  0.9166770000000000  0.5833220000000026  0.5236360000000033   F   F   F
  0.9166770000000000  0.8333220000000026  0.5236360000000033   F   F   F
  0.0833220000000026  0.1666770000000000  0.5861360000000033   F   F   F
  0.0833220000000026  0.4166770000000000  0.5861360000000033   F   F   F
  0.0833220000000026  0.6666770000000000  0.5861360000000033   F   F   F
  0.0833220000000026  0.9166770000000000  0.5861360000000033   F   F   F
  0.3333220000000026  0.1666770000000000  0.5861360000000033   F   F   F
  0.3333220000000026  0.4166770000000000  0.5861360000000033   F   F   F
  0.3333220000000026  0.6666770000000000  0.5861360000000033   F   F   F
  0.3333220000000026  0.9166770000000000  0.5861360000000033   F   F   F
  0.5833220000000026  0.1666770000000000  0.5861360000000033   F   F   F
  0.5833220000000026  0.4166770000000000  0.5861360000000033   F   F   F
  0.5833220000000026  0.6666770000000000  0.5861360000000033   F   F   F
  0.5833220000000026  0.9166770000000000  0.5861360000000033   F   F   F
  0.8333220000000026  0.1666770000000000  0.5861360000000033   F   F   F
  0.8333220000000026  0.4166770000000000  0.5861360000000033   F   F   F
  0.8333220000000026  0.6666770000000000  0.5861360000000033   F   F   F
  0.8333220000000026  0.9166770000000000  0.5861360000000033   F   F   F
  0.1666770000000000  0.0833220000000026  0.6486360000000033   F   F   F
  0.1666770000000000  0.3333220000000026  0.6486360000000033   F   F   F
  0.1666770000000000  0.5833220000000026  0.6486360000000033   F   F   F
  0.1666770000000000  0.8333220000000026  0.6486360000000033   F   F   F
  0.4166770000000000  0.0833220000000026  0.6486360000000033   F   F   F
  0.4166770000000000  0.3333220000000026  0.6486360000000033   F   F   F
  0.4166770000000000  0.5833220000000026  0.6486360000000033   F   F   F
  0.4166770000000000  0.8333220000000026  0.6486360000000033   F   F   F
  0.6666770000000000  0.0833220000000026  0.6486360000000033   F   F   F
  0.6666770000000000  0.3333220000000026  0.6486360000000033   F   F   F
  0.6666770000000000  0.5833220000000026  0.6486360000000033   F   F   F
  0.6666770000000000  0.8333220000000026  0.6486360000000033   F   F   F
  0.9166770000000000  0.0833220000000026  0.6486360000000033   F   F   F
  0.9166770000000000  0.3333220000000026  0.6486360000000033   F   F   F
  0.9166770000000000  0.5833220000000026  0.6486360000000033   F   F   F
  0.9166770000000000  0.8333220000000026  0.6486360000000033   F   F   F
  0.0833420000000018  0.1666579999999982  0.7015940000000001   F   F   F
  0.0833420000000018  0.4166579999999982  0.7015940000000001   F   F   F
  0.0833420000000018  0.6666579999999982  0.7015940000000001   F   F   F
  0.0833420000000018  0.9166579999999982  0.7015940000000001   F   F   F
  0.3333420000000018  0.1666579999999982  0.7015940000000001   F   F   F
  0.3333420000000018  0.4166579999999982  0.7015940000000001   F   F   F
  0.3333420000000018  0.6666579999999982  0.7015940000000001   F   F   F
  0.3333420000000018  0.9166579999999982  0.7015940000000001   F   F   F
  0.5833420000000018  0.1666579999999982  0.7015940000000001   F   F   F
  0.5833420000000018  0.4166579999999982  0.7015940000000001   F   F   F
  0.5833420000000018  0.6666579999999982  0.7015940000000001   F   F   F
  0.5833420000000018  0.9166579999999982  0.7015940000000001   F   F   F
  0.8333420000000018  0.1666579999999982  0.7015940000000001   F   F   F
  0.8333420000000018  0.4166579999999982  0.7015940000000001   F   F   F
  0.8333420000000018  0.6666579999999982  0.7015940000000001   F   F   F
  0.8333420000000018  0.9166579999999982  0.7015940000000001   F   F   F
  0.7233077653888813  0.5580648079297390  0.2929625004546139   T   T   T
  0.5087992473554621  0.4978974179842339  0.3073027705825453   T   T   T
  0.6500783326596959  0.3503751025469626  0.3163304732585388   T   T   T
  0.4426169513144558  0.2867737706083702  0.2906076222655045   T   T   T
  0.4271378800405614  0.2569565275391170  0.2497401760086362   T   T   T
  0.6946633400000000  0.5580600000000000  0.2534600000000000   T   T   T
  0.7519566600000000  0.5580600000000000  0.2534600000000000   T   T   T
 
  0.00000000E+00  0.00000000E+00  0.00000000E+00
  0.00000000E+00  0.00000000E+00  0.00000000E+00
  0.00000000E+00  0.00000000E+00  0.00000000E+00
  0.00000000E+00  0.00000000E+00  0.00000000E+00
  0.00000000E+00  0.00000000E+00  0.00000000E+00
  0.00000000E+00  0.00000000E+00  0.00000000E+00
  0.00000000E+00  0.00000000E+00  0.00000000E+00
  0.00000000E+00  0.00000000E+00  0.00000000E+00
  0.00000000E+00  0.00000000E+00  0.00000000E+00
  0.00000000E+00  0.00000000E+00  0.00000000E+00
  0.00000000E+00  0.00000000E+00  0.00000000E+00
  0.00000000E+00  0.00000000E+00  0.00000000E+00
  0.00000000E+00  0.00000000E+00  0.00000000E+00
  0.00000000E+00  0.00000000E+00  0.00000000E+00
  0.00000000E+00  0.00000000E+00  0.00000000E+00
  0.00000000E+00  0.00000000E+00  0.00000000E+00
  0.00000000E+00  0.00000000E+00  0.00000000E+00
  0.00000000E+00  0.00000000E+00  0.00000000E+00
  0.00000000E+00  0.00000000E+00  0.00000000E+00
  0.00000000E+00  0.00000000E+00  0.00000000E+00
  0.00000000E+00  0.00000000E+00  0.00000000E+00
  0.00000000E+00  0.00000000E+00  0.00000000E+00
  0.00000000E+00  0.00000000E+00  0.00000000E+00
  0.00000000E+00  0.00000000E+00  0.00000000E+00
  0.00000000E+00  0.00000000E+00  0.00000000E+00
  0.00000000E+00  0.00000000E+00  0.00000000E+00
  0.00000000E+00  0.00000000E+00  0.00000000E+00
  0.00000000E+00  0.00000000E+00  0.00000000E+00
  0.00000000E+00  0.00000000E+00  0.00000000E+00
  0.00000000E+00  0.00000000E+00  0.00000000E+00
  0.00000000E+00  0.00000000E+00  0.00000000E+00
  0.00000000E+00  0.00000000E+00  0.00000000E+00
  0.00000000E+00  0.00000000E+00  0.00000000E+00
  0.00000000E+00  0.00000000E+00  0.00000000E+00
  0.00000000E+00  0.00000000E+00  0.00000000E+00
  0.00000000E+00  0.00000000E+00  0.00000000E+00
  0.00000000E+00  0.00000000E+00  0.00000000E+00
  0.00000000E+00  0.00000000E+00  0.00000000E+00
  0.00000000E+00  0.00000000E+00  0.00000000E+00
  0.00000000E+00  0.00000000E+00  0.00000000E+00
  0.00000000E+00  0.00000000E+00  0.00000000E+00
  0.00000000E+00  0.00000000E+00  0.00000000E+00
  0.00000000E+00  0.00000000E+00  0.00000000E+00
  0.00000000E+00  0.00000000E+00  0.00000000E+00
  0.00000000E+00  0.00000000E+00  0.00000000E+00
  0.00000000E+00  0.00000000E+00  0.00000000E+00
  0.00000000E+00  0.00000000E+00  0.00000000E+00
  0.00000000E+00  0.00000000E+00  0.00000000E+00
  0.00000000E+00  0.00000000E+00  0.00000000E+00
  0.00000000E+00  0.00000000E+00  0.00000000E+00
  0.00000000E+00  0.00000000E+00  0.00000000E+00
  0.00000000E+00  0.00000000E+00  0.00000000E+00
  0.00000000E+00  0.00000000E+00  0.00000000E+00
  0.00000000E+00  0.00000000E+00  0.00000000E+00
  0.00000000E+00  0.00000000E+00  0.00000000E+00
  0.00000000E+00  0.00000000E+00  0.00000000E+00
  0.00000000E+00  0.00000000E+00  0.00000000E+00
  0.00000000E+00  0.00000000E+00  0.00000000E+00
  0.00000000E+00  0.00000000E+00  0.00000000E+00
  0.00000000E+00  0.00000000E+00  0.00000000E+00
  0.00000000E+00  0.00000000E+00  0.00000000E+00
  0.00000000E+00  0.00000000E+00  0.00000000E+00
  0.00000000E+00  0.00000000E+00  0.00000000E+00
  0.00000000E+00  0.00000000E+00  0.00000000E+00
  0.00000000E+00  0.00000000E+00  0.00000000E+00
  0.00000000E+00  0.00000000E+00  0.00000000E+00
  0.00000000E+00  0.00000000E+00  0.00000000E+00
  0.00000000E+00  0.00000000E+00  0.00000000E+00
  0.00000000E+00  0.00000000E+00  0.00000000E+00
  0.00000000E+00  0.00000000E+00  0.00000000E+00
  0.00000000E+00  0.00000000E+00  0.00000000E+00
  0.00000000E+00  0.00000000E+00  0.00000000E+00
  0.00000000E+00  0.00000000E+00  0.00000000E+00
  0.00000000E+00  0.00000000E+00  0.00000000E+00
  0.00000000E+00  0.00000000E+00  0.00000000E+00
  0.00000000E+00  0.00000000E+00  0.00000000E+00
  0.00000000E+00  0.00000000E+00  0.00000000E+00
  0.00000000E+00  0.00000000E+00  0.00000000E+00
  0.00000000E+00  0.00000000E+00  0.00000000E+00
  0.00000000E+00  0.00000000E+00  0.00000000E+00
  0.00000000E+00  0.00000000E+00  0.00000000E+00
  0.00000000E+00  0.00000000E+00  0.00000000E+00
  0.00000000E+00  0.00000000E+00  0.00000000E+00
  0.00000000E+00  0.00000000E+00  0.00000000E+00
  0.00000000E+00  0.00000000E+00  0.00000000E+00
  0.00000000E+00  0.00000000E+00  0.00000000E+00
  0.00000000E+00  0.00000000E+00  0.00000000E+00
  0.00000000E+00  0.00000000E+00  0.00000000E+00
  0.00000000E+00  0.00000000E+00  0.00000000E+00
  0.00000000E+00  0.00000000E+00  0.00000000E+00
  0.00000000E+00  0.00000000E+00  0.00000000E+00
  0.00000000E+00  0.00000000E+00  0.00000000E+00
  0.00000000E+00  0.00000000E+00  0.00000000E+00
  0.00000000E+00  0.00000000E+00  0.00000000E+00
  0.00000000E+00  0.00000000E+00  0.00000000E+00
  0.00000000E+00  0.00000000E+00  0.00000000E+00
  0.00000000E+00  0.00000000E+00  0.00000000E+00
  0.00000000E+00  0.00000000E+00  0.00000000E+00
  0.00000000E+00  0.00000000E+00  0.00000000E+00
  0.00000000E+00  0.00000000E+00  0.00000000E+00
  0.00000000E+00  0.00000000E+00  0.00000000E+00
  0.00000000E+00  0.00000000E+00  0.00000000E+00
  0.00000000E+00  0.00000000E+00  0.00000000E+00
  0.00000000E+00  0.00000000E+00  0.00000000E+00
  0.00000000E+00  0.00000000E+00  0.00000000E+00
  0.00000000E+00  0.00000000E+00  0.00000000E+00
  0.00000000E+00  0.00000000E+00  0.00000000E+00
  0.00000000E+00  0.00000000E+00  0.00000000E+00
  0.00000000E+00  0.00000000E+00  0.00000000E+00
  0.00000000E+00  0.00000000E+00  0.00000000E+00
  0.00000000E+00  0.00000000E+00  0.00000000E+00
  0.00000000E+00  0.00000000E+00  0.00000000E+00
  0.00000000E+00  0.00000000E+00  0.00000000E+00
  0.00000000E+00  0.00000000E+00  0.00000000E+00
  0.00000000E+00  0.00000000E+00  0.00000000E+00
  0.00000000E+00  0.00000000E+00  0.00000000E+00
  0.00000000E+00  0.00000000E+00  0.00000000E+00
  0.00000000E+00  0.00000000E+00  0.00000000E+00
  0.00000000E+00  0.00000000E+00  0.00000000E+00
  0.00000000E+00  0.00000000E+00  0.00000000E+00
  0.00000000E+00  0.00000000E+00  0.00000000E+00
  0.00000000E+00  0.00000000E+00  0.00000000E+00
  0.00000000E+00  0.00000000E+00  0.00000000E+00
  0.00000000E+00  0.00000000E+00  0.00000000E+00
  0.00000000E+00  0.00000000E+00  0.00000000E+00
  0.00000000E+00  0.00000000E+00  0.00000000E+00
  0.00000000E+00  0.00000000E+00  0.00000000E+00
  0.00000000E+00  0.00000000E+00  0.00000000E+00
  0.00000000E+00  0.00000000E+00  0.00000000E+00
  0.00000000E+00  0.00000000E+00  0.00000000E+00
  0.00000000E+00  0.00000000E+00  0.00000000E+00
  0.00000000E+00  0.00000000E+00  0.00000000E+00
  0.00000000E+00  0.00000000E+00  0.00000000E+00
  0.00000000E+00  0.00000000E+00  0.00000000E+00
  0.00000000E+00  0.00000000E+00  0.00000000E+00
  0.00000000E+00  0.00000000E+00  0.00000000E+00
  0.00000000E+00  0.00000000E+00  0.00000000E+00
  0.00000000E+00  0.00000000E+00  0.00000000E+00
  0.00000000E+00  0.00000000E+00  0.00000000E+00
  0.00000000E+00  0.00000000E+00  0.00000000E+00
  0.00000000E+00  0.00000000E+00  0.00000000E+00
  0.00000000E+00  0.00000000E+00  0.00000000E+00
  0.00000000E+00  0.00000000E+00  0.00000000E+00
  0.00000000E+00  0.00000000E+00  0.00000000E+00
  0.00000000E+00  0.00000000E+00  0.00000000E+00
  0.00000000E+00  0.00000000E+00  0.00000000E+00
  0.00000000E+00  0.00000000E+00  0.00000000E+00
  0.00000000E+00  0.00000000E+00  0.00000000E+00
  0.00000000E+00  0.00000000E+00  0.00000000E+00
  0.00000000E+00  0.00000000E+00  0.00000000E+00
  0.00000000E+00  0.00000000E+00  0.00000000E+00
  0.00000000E+00  0.00000000E+00  0.00000000E+00
  0.00000000E+00  0.00000000E+00  0.00000000E+00
  0.00000000E+00  0.00000000E+00  0.00000000E+00
  0.00000000E+00  0.00000000E+00  0.00000000E+00
  0.00000000E+00  0.00000000E+00  0.00000000E+00
  0.00000000E+00  0.00000000E+00  0.00000000E+00
  0.00000000E+00  0.00000000E+00  0.00000000E+00
  0.00000000E+00  0.00000000E+00  0.00000000E+00
  0.00000000E+00  0.00000000E+00  0.00000000E+00
  0.00000000E+00  0.00000000E+00  0.00000000E+00
  0.00000000E+00  0.00000000E+00  0.00000000E+00
  0.00000000E+00  0.00000000E+00  0.00000000E+00
  0.00000000E+00  0.00000000E+00  0.00000000E+00
  0.00000000E+00  0.00000000E+00  0.00000000E+00
  0.00000000E+00  0.00000000E+00  0.00000000E+00
  0.00000000E+00  0.00000000E+00  0.00000000E+00
  0.00000000E+00  0.00000000E+00  0.00000000E+00
  0.00000000E+00  0.00000000E+00  0.00000000E+00
  0.00000000E+00  0.00000000E+00  0.00000000E+00
  0.00000000E+00  0.00000000E+00  0.00000000E+00
  0.00000000E+00  0.00000000E+00  0.00000000E+00
  0.00000000E+00  0.00000000E+00  0.00000000E+00
  0.00000000E+00  0.00000000E+00  0.00000000E+00
  0.00000000E+00  0.00000000E+00  0.00000000E+00
  0.00000000E+00  0.00000000E+00  0.00000000E+00
  0.00000000E+00  0.00000000E+00  0.00000000E+00
  0.00000000E+00  0.00000000E+00  0.00000000E+00
  0.00000000E+00  0.00000000E+00  0.00000000E+00
  0.00000000E+00  0.00000000E+00  0.00000000E+00
  0.00000000E+00  0.00000000E+00  0.00000000E+00
  0.00000000E+00  0.00000000E+00  0.00000000E+00
  0.00000000E+00  0.00000000E+00  0.00000000E+00
  0.00000000E+00  0.00000000E+00  0.00000000E+00
  0.00000000E+00  0.00000000E+00  0.00000000E+00
  0.00000000E+00  0.00000000E+00  0.00000000E+00
  0.00000000E+00  0.00000000E+00  0.00000000E+00
  0.00000000E+00  0.00000000E+00  0.00000000E+00
  0.00000000E+00  0.00000000E+00  0.00000000E+00
  0.00000000E+00  0.00000000E+00  0.00000000E+00
  0.00000000E+00  0.00000000E+00  0.00000000E+00
  0.00000000E+00  0.00000000E+00  0.00000000E+00
  0.00000000E+00  0.00000000E+00  0.00000000E+00
  0.00000000E+00  0.00000000E+00  0.00000000E+00
  0.00000000E+00  0.00000000E+00  0.00000000E+00
  0.00000000E+00  0.00000000E+00  0.00000000E+00
  0.00000000E+00  0.00000000E+00  0.00000000E+00
  0.00000000E+00  0.00000000E+00  0.00000000E+00
  0.00000000E+00  0.00000000E+00  0.00000000E+00
  0.00000000E+00  0.00000000E+00  0.00000000E+00
  0.00000000E+00  0.00000000E+00  0.00000000E+00
  0.00000000E+00  0.00000000E+00  0.00000000E+00
  0.00000000E+00  0.00000000E+00  0.00000000E+00
  0.00000000E+00  0.00000000E+00  0.00000000E+00
  0.00000000E+00  0.00000000E+00  0.00000000E+00
  0.00000000E+00  0.00000000E+00  0.00000000E+00
  0.00000000E+00  0.00000000E+00  0.00000000E+00
  0.00000000E+00  0.00000000E+00  0.00000000E+00
  0.00000000E+00  0.00000000E+00  0.00000000E+00
  0.00000000E+00  0.00000000E+00  0.00000000E+00
  0.00000000E+00  0.00000000E+00  0.00000000E+00
  0.00000000E+00  0.00000000E+00  0.00000000E+00
  0.00000000E+00  0.00000000E+00  0.00000000E+00
