Zn96 H16 O96                            
    1.000000000000000     
    12.9159908295000001    0.0000000000000000    0.0000000000000000
    -6.4575307008999996   11.1858444632000005    0.0000000000000000
     0.0000000000000000    0.0000000000000000   41.8715667725000031
   Zn   O    H    O H
    96    96    16     1 2
Selective dynamics
Direct
  0.0833422689999992  0.1666569710000019  0.4138641059999983   F   F   F
  0.0833422689999992  0.4166569710000019  0.4138641059999983   F   F   F
  0.0833422689999992  0.6666569710000019  0.4138641059999983   F   F   F
  0.0833422689999992  0.9166569710000019  0.4138641059999983   F   F   F
  0.3333422540000015  0.1666569710000019  0.4138641059999983   F   F   F
  0.3333422540000015  0.4166569710000019  0.4138641059999983   F   F   F
  0.3333422540000015  0.6666569710000019  0.4138641059999983   F   F   F
  0.3333422540000015  0.9166569710000019  0.4138641059999983   F   F   F
  0.5833422540000015  0.1666569710000019  0.4138641059999983   F   F   F
  0.5833422540000015  0.4166569710000019  0.4138641059999983   F   F   F
  0.5833422540000015  0.6666569710000019  0.4138641059999983   F   F   F
  0.5833422540000015  0.9166569710000019  0.4138641059999983   F   F   F
  0.8333422540000015  0.1666569710000019  0.4138641059999983   F   F   F
  0.8333422540000015  0.4166569710000019  0.4138641059999983   F   F   F
  0.8333422540000015  0.6666569710000019  0.4138641059999983   F   F   F
  0.8333422540000015  0.9166569710000019  0.4138641059999983   F   F   F
  0.1666568959999992  0.0833424400000027  0.3513641059999983   F   F   F
  0.1666568959999992  0.3333424329999986  0.3513641059999983   F   F   F
  0.1666568959999992  0.5833424329999986  0.3513641059999983   F   F   F
  0.1666568959999992  0.8333424329999986  0.3513641059999983   F   F   F
  0.4166569109999969  0.0833424400000027  0.3513641059999983   F   F   F
  0.4166569109999969  0.3333424329999986  0.3513641059999983   F   F   F
  0.4166569109999969  0.5833424329999986  0.3513641059999983   F   F   F
  0.4166569109999969  0.8333424329999986  0.3513641059999983   F   F   F
  0.6666569109999969  0.0833424400000027  0.3513641059999983   F   F   F
  0.6666569109999969  0.3333424329999986  0.3513641059999983   F   F   F
  0.6666569109999969  0.5833424329999986  0.3513641059999983   F   F   F
  0.6666569109999969  0.8333424329999986  0.3513641059999983   F   F   F
  0.9166569109999969  0.0833424400000027  0.3513641059999983   F   F   F
  0.9166569109999969  0.3333424329999986  0.3513641059999983   F   F   F
  0.9166569109999969  0.5833424329999986  0.3513641059999983   F   F   F
  0.9166569109999969  0.8333424329999986  0.3513641059999983   F   F   F
  0.0833421419999993  0.1666568819999981  0.5388641360000008   F   F   F
  0.0833421419999993  0.4166568819999981  0.5388641360000008   F   F   F
  0.0833421419999993  0.6666568520000027  0.5388641360000008   F   F   F
  0.0833421419999993  0.9166568520000027  0.5388641360000008   F   F   F
  0.3333421350000023  0.1666568819999981  0.5388641360000008   F   F   F
  0.3333421350000023  0.4166568819999981  0.5388641360000008   F   F   F
  0.3333421350000023  0.6666568520000027  0.5388641360000008   F   F   F
  0.3333421350000023  0.9166568520000027  0.5388641360000008   F   F   F
  0.5833421350000023  0.1666568819999981  0.5388641360000008   F   F   F
  0.5833421350000023  0.4166568819999981  0.5388641360000008   F   F   F
  0.5833421350000023  0.6666568520000027  0.5388641360000008   F   F   F
  0.5833421350000023  0.9166568520000027  0.5388641360000008   F   F   F
  0.8333421350000023  0.1666568819999981  0.5388641360000008   F   F   F
  0.8333421350000023  0.4166568819999981  0.5388641360000008   F   F   F
  0.8333421350000023  0.6666568520000027  0.5388641360000008   F   F   F
  0.8333421350000023  0.9166568520000027  0.5388641360000008   F   F   F
  0.1666567770000000  0.0833423509999989  0.4763641059999983   F   F   F
  0.1666567770000000  0.3333423440000018  0.4763641059999983   F   F   F
  0.1666567770000000  0.5833423730000007  0.4763641059999983   F   F   F
  0.1666567770000000  0.8333423730000007  0.4763641059999983   F   F   F
  0.4166567919999977  0.0833423509999989  0.4763641059999983   F   F   F
  0.4166567919999977  0.3333423440000018  0.4763641059999983   F   F   F
  0.4166567919999977  0.5833423730000007  0.4763641059999983   F   F   F
  0.4166567919999977  0.8333423730000007  0.4763641059999983   F   F   F
  0.6666567919999977  0.0833423509999989  0.4763641059999983   F   F   F
  0.6666567919999977  0.3333423440000018  0.4763641059999983   F   F   F
  0.6666567919999977  0.5833423730000007  0.4763641059999983   F   F   F
  0.6666567919999977  0.8333423730000007  0.4763641059999983   F   F   F
  0.9166567919999977  0.0833423509999989  0.4763641059999983   F   F   F
  0.9166567919999977  0.3333423440000018  0.4763641059999983   F   F   F
  0.9166567919999977  0.5833423730000007  0.4763641059999983   F   F   F
  0.9166567919999977  0.8333423730000007  0.4763641059999983   F   F   F
  0.0842872909980825  0.1701734895510937  0.6617748126738732   T   T   T
  0.0842886655705404  0.4141006041625300  0.6617748183858226   T   T   T
  0.0913504406029662  0.6826920616682408  0.6701991901940832   T   T   T
  0.0913528964574253  0.9086442207466608  0.6701998390002756   T   T   T
  0.3306573776856818  0.1613082885661681  0.6592377504508057   T   T   T
  0.3539200320245811  0.4269530706033461  0.6714861163476480   T   T   T
  0.3306608253165503  0.6693376753877612  0.6592384102710533   T   T   T
  0.3173056835105943  0.9086475088544523  0.6701992984124967   T   T   T
  0.5858947767507334  0.1701711113020789  0.6617740130846201   T   T   T
  0.5730467644976359  0.4269505649725636  0.6714857508851791   T   T   T
  0.5730455645225560  0.6460789360003635  0.6714862985041206   T   T   T
  0.5858975500698639  0.9157097901111504  0.6617747151311385   T   T   T
  0.8333367969955099  0.1666614534979467  0.6737508042471603   T   T   T
  0.8298247077709038  0.4141010891851467  0.6617740623665709   T   T   T
  0.8386899400675325  0.6693400240104890  0.6592375461363802   T   T   T
  0.8298251275805275  0.9157116296898099  0.6617754783871558   T   T   T
  0.1646009221667835  0.0811906460603090  0.6028705046284933   T   T   T
  0.1721640918558153  0.3360703078815304  0.6040223129860290   T   T   T
  0.1646052886144443  0.5833899368615990  0.6028707337081665   T   T   T
  0.1666718947569183  0.8333276458226762  0.5993066085083637   T   T   T
  0.4166095354990705  0.0811855804206278  0.6028704632911371   T   T   T
  0.4168885683992844  0.3337575458215268  0.6020039177130379   T   T   T
  0.4168950399494723  0.5831022999601813  0.6020049312806449   T   T   T
  0.4166084390151137  0.8353904710018891  0.6028707959908006   T   T   T
  0.6692365848764198  0.0846068770532739  0.6029933155661760   T   T   T
  0.6639280903724800  0.3360705108380552  0.6040215684457868   T   T   T
  0.6662357239062058  0.5831064107942501  0.6020041954329771   T   T   T
  0.6639286149708977  0.8278343749456715  0.6040225787684919   T   T   T
  0.9153898193415813  0.0846075934596463  0.6029931310040340   T   T   T
  0.9153907361817332  0.3307605469207656  0.6029932744512715   T   T   T
  0.9188104334761061  0.5833876258262284  0.6028706083863892   T   T   T
  0.9188043660986455  0.8353926972619827  0.6028704773122520   T   T   T
  0.0833223240000009  0.1666771619999992  0.3361358940000017   F   F   F
  0.0833223240000009  0.4166771769999968  0.3361358940000017   F   F   F
  0.0833223240000009  0.6666771769999968  0.3361358940000017   F   F   F
  0.0833223240000009  0.9166771769999968  0.3361358940000017   F   F   F
  0.3333223160000003  0.1666771619999992  0.3361358940000017   F   F   F
  0.3333223160000003  0.4166771769999968  0.3361358940000017   F   F   F
  0.3333223160000003  0.6666771769999968  0.3361358940000017   F   F   F
  0.3333223160000003  0.9166771769999968  0.3361358940000017   F   F   F
  0.5833223460000028  0.1666771619999992  0.3361358940000017   F   F   F
  0.5833223460000028  0.4166771769999968  0.3361358940000017   F   F   F
  0.5833223460000028  0.6666771769999968  0.3361358940000017   F   F   F
  0.5833223460000028  0.9166771769999968  0.3361358940000017   F   F   F
  0.8333223460000028  0.1666771619999992  0.3361358940000017   F   F   F
  0.8333223460000028  0.4166771769999968  0.3361358940000017   F   F   F
  0.8333223460000028  0.6666771769999968  0.3361358940000017   F   F   F
  0.8333223460000028  0.9166771769999968  0.3361358940000017   F   F   F
  0.1666769979999998  0.0833223759999981  0.3986358940000017   F   F   F
  0.1666769979999998  0.3333223759999981  0.3986358940000017   F   F   F
  0.1666769979999998  0.5833224060000006  0.3986358940000017   F   F   F
  0.1666769979999998  0.8333224060000006  0.3986358940000017   F   F   F
  0.4166769979999998  0.0833223759999981  0.3986358940000017   F   F   F
  0.4166769979999998  0.3333223759999981  0.3986358940000017   F   F   F
  0.4166769979999998  0.5833224060000006  0.3986358940000017   F   F   F
  0.4166769979999998  0.8333224060000006  0.3986358940000017   F   F   F
  0.6666769979999998  0.0833223759999981  0.3986358940000017   F   F   F
  0.6666769979999998  0.3333223759999981  0.3986358940000017   F   F   F
  0.6666769979999998  0.5833224060000006  0.3986358940000017   F   F   F
  0.6666769979999998  0.8333224060000006  0.3986358940000017   F   F   F
  0.9166769979999998  0.0833223759999981  0.3986358940000017   F   F   F
  0.9166769979999998  0.3333223759999981  0.3986358940000017   F   F   F
  0.9166769979999998  0.5833224060000006  0.3986358940000017   F   F   F
  0.9166769979999998  0.8333224060000006  0.3986358940000017   F   F   F
  0.0833221970000011  0.1666770730000025  0.4611358940000017   F   F   F
  0.0833221970000011  0.4166770579999977  0.4611358940000017   F   F   F
  0.0833221970000011  0.6666770579999977  0.4611358940000017   F   F   F
  0.0833221970000011  0.9166770579999977  0.4611358940000017   F   F   F
  0.3333221970000011  0.1666770730000025  0.4611358940000017   F   F   F
  0.3333221970000011  0.4166770579999977  0.4611358940000017   F   F   F
  0.3333221970000011  0.6666770579999977  0.4611358940000017   F   F   F
  0.3333221970000011  0.9166770579999977  0.4611358940000017   F   F   F
  0.5833221669999986  0.1666770730000025  0.4611358940000017   F   F   F
  0.5833221669999986  0.4166770579999977  0.4611358940000017   F   F   F
  0.5833221669999986  0.6666770579999977  0.4611358940000017   F   F   F
  0.5833221669999986  0.9166770579999977  0.4611358940000017   F   F   F
  0.8333221669999986  0.1666770730000025  0.4611358940000017   F   F   F
  0.8333221669999986  0.4166770579999977  0.4611358940000017   F   F   F
  0.8333221669999986  0.6666770579999977  0.4611358940000017   F   F   F
  0.8333221669999986  0.9166770579999977  0.4611358940000017   F   F   F
  0.1666768790000006  0.0833222870000014  0.5236359239999970   F   F   F
  0.1666768790000006  0.3333222870000014  0.5236359239999970   F   F   F
  0.1666768790000006  0.5833222870000014  0.5236359239999970   F   F   F
  0.1666768790000006  0.8333222870000014  0.5236359239999970   F   F   F
  0.4166768790000006  0.0833222870000014  0.5236359239999970   F   F   F
  0.4166768790000006  0.3333222870000014  0.5236359239999970   F   F   F
  0.4166768790000006  0.5833222870000014  0.5236359239999970   F   F   F
  0.4166768790000006  0.8333222870000014  0.5236359239999970   F   F   F
  0.6666768790000006  0.0833222870000014  0.5236359239999970   F   F   F
  0.6666768790000006  0.3333222870000014  0.5236359239999970   F   F   F
  0.6666768790000006  0.5833222870000014  0.5236359239999970   F   F   F
  0.6666768790000006  0.8333222870000014  0.5236359239999970   F   F   F
  0.9166768790000006  0.0833222870000014  0.5236359239999970   F   F   F
  0.9166768790000006  0.3333222870000014  0.5236359239999970   F   F   F
  0.9166768790000006  0.5833222870000014  0.5236359239999970   F   F   F
  0.9166768790000006  0.8333222870000014  0.5236359239999970   F   F   F
  0.0839774240811350  0.1685800606860805  0.5884053842386856   T   T   T
  0.0839781124587341  0.4153832725343374  0.5884050526096888   T   T   T
  0.0820487417039511  0.6640790643788302  0.5863538795746039   T   T   T
  0.0820431941508841  0.9179523556621026  0.5863537100998198   T   T   T
  0.3318015231841165  0.1635860127963302  0.5876971531012415   T   T   T
  0.3337178522315538  0.4168487629026398  0.5866481460678740   T   T   T
  0.3318051017923879  0.6681915685669679  0.5876972435091921   T   T   T
  0.3359194662994367  0.9179463144527263  0.5863535182174884   T   T   T
  0.5846150812919443  0.1685795340901149  0.5884051876973846   T   T   T
  0.5831451204206950  0.4168505786291588  0.5866486414766571   T   T   T
  0.5831489159453848  0.6662810323537006  0.5866481217479593   T   T   T
  0.5846152283909919  0.9160198321787628  0.5884051829911313   T   T   T
  0.8333363789719030  0.1666609330656140  0.5866794232012500   T   T   T
  0.8314186423374714  0.4153826437670593  0.5884051304183489   T   T   T
  0.8364084131921466  0.6681922818970890  0.5876967486240808   T   T   T
  0.8314184343070627  0.9160204532655704  0.5884053381398638   T   T   T
  0.1599142099280395  0.0757474262014659  0.6535369058116092   T   T   T
  0.1827970470037240  0.3413887907807282  0.6560990725269361   T   T   T
  0.1599164439024887  0.5841487741638957  0.6535381083773205   T   T   T
  0.1666724521947092  0.8333254766937600  0.6457060482983213   T   T   T
  0.4158488849043084  0.0757493527424467  0.6535371505039105   T   T   T
  0.4128795741202644  0.3257425426623898  0.6493492779241112   T   T   T
  0.4128795196192361  0.5871194360152269  0.6493491082563728   T   T   T
  0.4158494235712401  0.8400821865240166  0.6535380526657687   T   T   T
  0.6703233955939090  0.0851527704680513  0.6526485020293538   T   T   T
  0.6586109574856798  0.3413852031967893  0.6560983498425865   T   T   T
  0.6742554576109259  0.5871185001768681  0.6493493995770665   T   T   T
  0.6586101085508165  0.8172020388857535  0.6560991789149233   T   T   T
  0.9148447469608699  0.0851536137276421  0.6526480344655604   T   T   T
  0.9148458843721406  0.3296749881032677  0.6526484693298471   T   T   T
  0.9242479297206335  0.5841476910020007  0.6535372597454674   T   T   T
  0.9242496292136977  0.8400832083686879  0.6535370209087474   T   T   T
  0.0833225029999980  0.1666775050000027  0.3114693160000002   F   F   F
  0.0833225029999980  0.4166775050000027  0.3114693160000002   F   F   F
  0.0833225029999980  0.6666774750000002  0.3114693160000002   F   F   F
  0.0833225029999980  0.9166774750000002  0.3114693160000002   F   F   F
  0.3333224949999973  0.1666775050000027  0.3114693160000002   F   F   F
  0.3333224949999973  0.4166775050000027  0.3114693160000002   F   F   F
  0.3333224949999973  0.6666774750000002  0.3114693160000002   F   F   F
  0.3333224949999973  0.9166774750000002  0.3114693160000002   F   F   F
  0.5833225249999998  0.1666775050000027  0.3114693160000002   F   F   F
  0.5833225249999998  0.4166775050000027  0.3114693160000002   F   F   F
  0.5833225249999998  0.6666774750000002  0.3114693160000002   F   F   F
  0.5833225249999998  0.9166774750000002  0.3114693160000002   F   F   F
  0.8333225249999998  0.1666775050000027  0.3114693160000002   F   F   F
  0.8333225249999998  0.4166775050000027  0.3114693160000002   F   F   F
  0.8333225249999998  0.6666774750000002  0.3114693160000002   F   F   F
  0.8333225249999998  0.9166774750000002  0.3114693160000002   F   F   F
  0.5000030680704683  0.4999954019159096  0.6983312322076589   T   T   T
  0.3020133400000000  0.6693400000000000  0.6992400000000000   T   T   T
  0.3593066600000000  0.6693400000000000  0.6992400000000000   T   T   T
 
  0.00000000E+00  0.00000000E+00  0.00000000E+00
  0.00000000E+00  0.00000000E+00  0.00000000E+00
  0.00000000E+00  0.00000000E+00  0.00000000E+00
  0.00000000E+00  0.00000000E+00  0.00000000E+00
  0.00000000E+00  0.00000000E+00  0.00000000E+00
  0.00000000E+00  0.00000000E+00  0.00000000E+00
  0.00000000E+00  0.00000000E+00  0.00000000E+00
  0.00000000E+00  0.00000000E+00  0.00000000E+00
  0.00000000E+00  0.00000000E+00  0.00000000E+00
  0.00000000E+00  0.00000000E+00  0.00000000E+00
  0.00000000E+00  0.00000000E+00  0.00000000E+00
  0.00000000E+00  0.00000000E+00  0.00000000E+00
  0.00000000E+00  0.00000000E+00  0.00000000E+00
  0.00000000E+00  0.00000000E+00  0.00000000E+00
  0.00000000E+00  0.00000000E+00  0.00000000E+00
  0.00000000E+00  0.00000000E+00  0.00000000E+00
  0.00000000E+00  0.00000000E+00  0.00000000E+00
  0.00000000E+00  0.00000000E+00  0.00000000E+00
  0.00000000E+00  0.00000000E+00  0.00000000E+00
  0.00000000E+00  0.00000000E+00  0.00000000E+00
  0.00000000E+00  0.00000000E+00  0.00000000E+00
  0.00000000E+00  0.00000000E+00  0.00000000E+00
  0.00000000E+00  0.00000000E+00  0.00000000E+00
  0.00000000E+00  0.00000000E+00  0.00000000E+00
  0.00000000E+00  0.00000000E+00  0.00000000E+00
  0.00000000E+00  0.00000000E+00  0.00000000E+00
  0.00000000E+00  0.00000000E+00  0.00000000E+00
  0.00000000E+00  0.00000000E+00  0.00000000E+00
  0.00000000E+00  0.00000000E+00  0.00000000E+00
  0.00000000E+00  0.00000000E+00  0.00000000E+00
  0.00000000E+00  0.00000000E+00  0.00000000E+00
  0.00000000E+00  0.00000000E+00  0.00000000E+00
  0.00000000E+00  0.00000000E+00  0.00000000E+00
  0.00000000E+00  0.00000000E+00  0.00000000E+00
  0.00000000E+00  0.00000000E+00  0.00000000E+00
  0.00000000E+00  0.00000000E+00  0.00000000E+00
  0.00000000E+00  0.00000000E+00  0.00000000E+00
  0.00000000E+00  0.00000000E+00  0.00000000E+00
  0.00000000E+00  0.00000000E+00  0.00000000E+00
  0.00000000E+00  0.00000000E+00  0.00000000E+00
  0.00000000E+00  0.00000000E+00  0.00000000E+00
  0.00000000E+00  0.00000000E+00  0.00000000E+00
  0.00000000E+00  0.00000000E+00  0.00000000E+00
  0.00000000E+00  0.00000000E+00  0.00000000E+00
  0.00000000E+00  0.00000000E+00  0.00000000E+00
  0.00000000E+00  0.00000000E+00  0.00000000E+00
  0.00000000E+00  0.00000000E+00  0.00000000E+00
  0.00000000E+00  0.00000000E+00  0.00000000E+00
  0.00000000E+00  0.00000000E+00  0.00000000E+00
  0.00000000E+00  0.00000000E+00  0.00000000E+00
  0.00000000E+00  0.00000000E+00  0.00000000E+00
  0.00000000E+00  0.00000000E+00  0.00000000E+00
  0.00000000E+00  0.00000000E+00  0.00000000E+00
  0.00000000E+00  0.00000000E+00  0.00000000E+00
  0.00000000E+00  0.00000000E+00  0.00000000E+00
  0.00000000E+00  0.00000000E+00  0.00000000E+00
  0.00000000E+00  0.00000000E+00  0.00000000E+00
  0.00000000E+00  0.00000000E+00  0.00000000E+00
  0.00000000E+00  0.00000000E+00  0.00000000E+00
  0.00000000E+00  0.00000000E+00  0.00000000E+00
  0.00000000E+00  0.00000000E+00  0.00000000E+00
  0.00000000E+00  0.00000000E+00  0.00000000E+00
  0.00000000E+00  0.00000000E+00  0.00000000E+00
  0.00000000E+00  0.00000000E+00  0.00000000E+00
  0.00000000E+00  0.00000000E+00  0.00000000E+00
  0.00000000E+00  0.00000000E+00  0.00000000E+00
  0.00000000E+00  0.00000000E+00  0.00000000E+00
  0.00000000E+00  0.00000000E+00  0.00000000E+00
  0.00000000E+00  0.00000000E+00  0.00000000E+00
  0.00000000E+00  0.00000000E+00  0.00000000E+00
  0.00000000E+00  0.00000000E+00  0.00000000E+00
  0.00000000E+00  0.00000000E+00  0.00000000E+00
  0.00000000E+00  0.00000000E+00  0.00000000E+00
  0.00000000E+00  0.00000000E+00  0.00000000E+00
  0.00000000E+00  0.00000000E+00  0.00000000E+00
  0.00000000E+00  0.00000000E+00  0.00000000E+00
  0.00000000E+00  0.00000000E+00  0.00000000E+00
  0.00000000E+00  0.00000000E+00  0.00000000E+00
  0.00000000E+00  0.00000000E+00  0.00000000E+00
  0.00000000E+00  0.00000000E+00  0.00000000E+00
  0.00000000E+00  0.00000000E+00  0.00000000E+00
  0.00000000E+00  0.00000000E+00  0.00000000E+00
  0.00000000E+00  0.00000000E+00  0.00000000E+00
  0.00000000E+00  0.00000000E+00  0.00000000E+00
  0.00000000E+00  0.00000000E+00  0.00000000E+00
  0.00000000E+00  0.00000000E+00  0.00000000E+00
  0.00000000E+00  0.00000000E+00  0.00000000E+00
  0.00000000E+00  0.00000000E+00  0.00000000E+00
  0.00000000E+00  0.00000000E+00  0.00000000E+00
  0.00000000E+00  0.00000000E+00  0.00000000E+00
  0.00000000E+00  0.00000000E+00  0.00000000E+00
  0.00000000E+00  0.00000000E+00  0.00000000E+00
  0.00000000E+00  0.00000000E+00  0.00000000E+00
  0.00000000E+00  0.00000000E+00  0.00000000E+00
  0.00000000E+00  0.00000000E+00  0.00000000E+00
  0.00000000E+00  0.00000000E+00  0.00000000E+00
  0.00000000E+00  0.00000000E+00  0.00000000E+00
  0.00000000E+00  0.00000000E+00  0.00000000E+00
  0.00000000E+00  0.00000000E+00  0.00000000E+00
  0.00000000E+00  0.00000000E+00  0.00000000E+00
  0.00000000E+00  0.00000000E+00  0.00000000E+00
  0.00000000E+00  0.00000000E+00  0.00000000E+00
  0.00000000E+00  0.00000000E+00  0.00000000E+00
  0.00000000E+00  0.00000000E+00  0.00000000E+00
  0.00000000E+00  0.00000000E+00  0.00000000E+00
  0.00000000E+00  0.00000000E+00  0.00000000E+00
  0.00000000E+00  0.00000000E+00  0.00000000E+00
  0.00000000E+00  0.00000000E+00  0.00000000E+00
  0.00000000E+00  0.00000000E+00  0.00000000E+00
  0.00000000E+00  0.00000000E+00  0.00000000E+00
  0.00000000E+00  0.00000000E+00  0.00000000E+00
  0.00000000E+00  0.00000000E+00  0.00000000E+00
  0.00000000E+00  0.00000000E+00  0.00000000E+00
  0.00000000E+00  0.00000000E+00  0.00000000E+00
  0.00000000E+00  0.00000000E+00  0.00000000E+00
  0.00000000E+00  0.00000000E+00  0.00000000E+00
  0.00000000E+00  0.00000000E+00  0.00000000E+00
  0.00000000E+00  0.00000000E+00  0.00000000E+00
  0.00000000E+00  0.00000000E+00  0.00000000E+00
  0.00000000E+00  0.00000000E+00  0.00000000E+00
  0.00000000E+00  0.00000000E+00  0.00000000E+00
  0.00000000E+00  0.00000000E+00  0.00000000E+00
  0.00000000E+00  0.00000000E+00  0.00000000E+00
  0.00000000E+00  0.00000000E+00  0.00000000E+00
  0.00000000E+00  0.00000000E+00  0.00000000E+00
  0.00000000E+00  0.00000000E+00  0.00000000E+00
  0.00000000E+00  0.00000000E+00  0.00000000E+00
  0.00000000E+00  0.00000000E+00  0.00000000E+00
  0.00000000E+00  0.00000000E+00  0.00000000E+00
  0.00000000E+00  0.00000000E+00  0.00000000E+00
  0.00000000E+00  0.00000000E+00  0.00000000E+00
  0.00000000E+00  0.00000000E+00  0.00000000E+00
  0.00000000E+00  0.00000000E+00  0.00000000E+00
  0.00000000E+00  0.00000000E+00  0.00000000E+00
  0.00000000E+00  0.00000000E+00  0.00000000E+00
  0.00000000E+00  0.00000000E+00  0.00000000E+00
  0.00000000E+00  0.00000000E+00  0.00000000E+00
  0.00000000E+00  0.00000000E+00  0.00000000E+00
  0.00000000E+00  0.00000000E+00  0.00000000E+00
  0.00000000E+00  0.00000000E+00  0.00000000E+00
  0.00000000E+00  0.00000000E+00  0.00000000E+00
  0.00000000E+00  0.00000000E+00  0.00000000E+00
  0.00000000E+00  0.00000000E+00  0.00000000E+00
  0.00000000E+00  0.00000000E+00  0.00000000E+00
  0.00000000E+00  0.00000000E+00  0.00000000E+00
  0.00000000E+00  0.00000000E+00  0.00000000E+00
  0.00000000E+00  0.00000000E+00  0.00000000E+00
  0.00000000E+00  0.00000000E+00  0.00000000E+00
  0.00000000E+00  0.00000000E+00  0.00000000E+00
  0.00000000E+00  0.00000000E+00  0.00000000E+00
  0.00000000E+00  0.00000000E+00  0.00000000E+00
  0.00000000E+00  0.00000000E+00  0.00000000E+00
  0.00000000E+00  0.00000000E+00  0.00000000E+00
  0.00000000E+00  0.00000000E+00  0.00000000E+00
  0.00000000E+00  0.00000000E+00  0.00000000E+00
  0.00000000E+00  0.00000000E+00  0.00000000E+00
  0.00000000E+00  0.00000000E+00  0.00000000E+00
  0.00000000E+00  0.00000000E+00  0.00000000E+00
  0.00000000E+00  0.00000000E+00  0.00000000E+00
  0.00000000E+00  0.00000000E+00  0.00000000E+00
  0.00000000E+00  0.00000000E+00  0.00000000E+00
  0.00000000E+00  0.00000000E+00  0.00000000E+00
  0.00000000E+00  0.00000000E+00  0.00000000E+00
  0.00000000E+00  0.00000000E+00  0.00000000E+00
  0.00000000E+00  0.00000000E+00  0.00000000E+00
  0.00000000E+00  0.00000000E+00  0.00000000E+00
  0.00000000E+00  0.00000000E+00  0.00000000E+00
  0.00000000E+00  0.00000000E+00  0.00000000E+00
  0.00000000E+00  0.00000000E+00  0.00000000E+00
  0.00000000E+00  0.00000000E+00  0.00000000E+00
  0.00000000E+00  0.00000000E+00  0.00000000E+00
  0.00000000E+00  0.00000000E+00  0.00000000E+00
  0.00000000E+00  0.00000000E+00  0.00000000E+00
  0.00000000E+00  0.00000000E+00  0.00000000E+00
  0.00000000E+00  0.00000000E+00  0.00000000E+00
  0.00000000E+00  0.00000000E+00  0.00000000E+00
  0.00000000E+00  0.00000000E+00  0.00000000E+00
  0.00000000E+00  0.00000000E+00  0.00000000E+00
  0.00000000E+00  0.00000000E+00  0.00000000E+00
  0.00000000E+00  0.00000000E+00  0.00000000E+00
  0.00000000E+00  0.00000000E+00  0.00000000E+00
  0.00000000E+00  0.00000000E+00  0.00000000E+00
  0.00000000E+00  0.00000000E+00  0.00000000E+00
  0.00000000E+00  0.00000000E+00  0.00000000E+00
  0.00000000E+00  0.00000000E+00  0.00000000E+00
  0.00000000E+00  0.00000000E+00  0.00000000E+00
  0.00000000E+00  0.00000000E+00  0.00000000E+00
  0.00000000E+00  0.00000000E+00  0.00000000E+00
  0.00000000E+00  0.00000000E+00  0.00000000E+00
  0.00000000E+00  0.00000000E+00  0.00000000E+00
  0.00000000E+00  0.00000000E+00  0.00000000E+00
  0.00000000E+00  0.00000000E+00  0.00000000E+00
  0.00000000E+00  0.00000000E+00  0.00000000E+00
  0.00000000E+00  0.00000000E+00  0.00000000E+00
  0.00000000E+00  0.00000000E+00  0.00000000E+00
  0.00000000E+00  0.00000000E+00  0.00000000E+00
  0.00000000E+00  0.00000000E+00  0.00000000E+00
  0.00000000E+00  0.00000000E+00  0.00000000E+00
  0.00000000E+00  0.00000000E+00  0.00000000E+00
  0.00000000E+00  0.00000000E+00  0.00000000E+00
  0.00000000E+00  0.00000000E+00  0.00000000E+00
  0.00000000E+00  0.00000000E+00  0.00000000E+00
  0.00000000E+00  0.00000000E+00  0.00000000E+00
  0.00000000E+00  0.00000000E+00  0.00000000E+00
  0.00000000E+00  0.00000000E+00  0.00000000E+00
  0.00000000E+00  0.00000000E+00  0.00000000E+00
  0.00000000E+00  0.00000000E+00  0.00000000E+00
  0.00000000E+00  0.00000000E+00  0.00000000E+00
  0.00000000E+00  0.00000000E+00  0.00000000E+00
