Zn96 H16 O96                            
    1.000000000000000     
    12.9159907272337371    0.0000000000000000    0.0000000000000008
    -6.4575301003323453   11.1858448318051593    0.0000000000000008
     0.0000000000000000    0.0000000000000000   41.8715658066988325
   Zn   O    H    O    H 
    96    96    16     1     1
Selective dynamics
Direct
  0.0834291883219881  0.1667607408821739  0.4126954365137060   T   T   T
  0.0834756270811074  0.4165527299103777  0.4127256563223865   T   T   T
  0.0834597785703912  0.6666920604399783  0.4127271429403614   T   T   T
  0.0834403063265366  0.9167509067577355  0.4126888648319044   T   T   T
  0.3333621969124682  0.1667641103191503  0.4126789329259358   T   T   T
  0.3337134114368240  0.4170453163669687  0.4126318297586262   T   T   T
  0.3336569404741682  0.6664909536102039  0.4126003298405770   T   T   T
  0.3334573184843140  0.9166530989618469  0.4127102435556889   T   T   T
  0.5834253550973681  0.1666461615067092  0.4127320619614379   T   T   T
  0.5830382352485799  0.4156912488019287  0.4129181917293183   T   T   T
  0.5831634120863809  0.6670451402586111  0.4126781758549536   T   T   T
  0.5837053892965933  0.9164015879606930  0.4125897815603161   T   T   T
  0.8335619579575068  0.1666836728581149  0.4127268192425760   T   T   T
  0.8335041465669170  0.4166308233732440  0.4126932871476738   T   T   T
  0.8345031209436239  0.6671481087668126  0.4129115229135905   T   T   T
  0.8331233860595957  0.9164231389940279  0.4126128747624900   T   T   T
  0.1667676243857845  0.0833537699068989  0.3477639822623838   T   T   T
  0.1669857005993723  0.3332624287173883  0.3477654877362756   T   T   T
  0.1662712676670075  0.5831526808274886  0.3479391629367030   T   T   T
  0.1667342491806068  0.8332854348460741  0.3477797566245904   T   T   T
  0.4168820645797295  0.0834292956916482  0.3478209578496573   T   T   T
  0.4169271569313901  0.3330971434600731  0.3476829716106863   T   T   T
  0.4140384303987037  0.5821451829868683  0.3469724825094609   T   T   T
  0.4165521569485693  0.8336936356693816  0.3477030819804209   T   T   T
  0.6670036285755847  0.0837632421993658  0.3479560038905370   T   T   T
  0.6669938631859633  0.3328181850245313  0.3477079435060269   T   T   T
  0.6703783906091885  0.5796913307319528  0.3494731239027929   T   T   T
  0.6679661450256427  0.8358442468842816  0.3468161679960625   T   T   T
  0.9168887478753023  0.0831364892811919  0.3477986569549620   T   T   T
  0.9169828268137603  0.3332215272220255  0.3478496195481356   T   T   T
  0.9172447233634360  0.5831600431848801  0.3476873619977562   T   T   T
  0.9172054553872682  0.8332738329021977  0.3476733033421064   T   T   T
  0.0833421456183316  0.1666568756581057  0.5388641089449635   F   F   F
  0.0833421456183316  0.4166568756581057  0.5388641089449635   F   F   F
  0.0833421456183316  0.6666568756581057  0.5388641089449635   F   F   F
  0.0833421456183316  0.9166568756581057  0.5388641089449635   F   F   F
  0.3333421456183316  0.1666568756581057  0.5388641089449635   F   F   F
  0.3333421456183316  0.4166568756581057  0.5388641089449635   F   F   F
  0.3333421456183316  0.6666568756581057  0.5388641089449635   F   F   F
  0.3333421456183316  0.9166568756581057  0.5388641089449635   F   F   F
  0.5833421456183316  0.1666568756581057  0.5388641089449635   F   F   F
  0.5833421456183316  0.4166568756581057  0.5388641089449635   F   F   F
  0.5833421456183316  0.6666568756581057  0.5388641089449635   F   F   F
  0.5833421456183316  0.9166568756581057  0.5388641089449635   F   F   F
  0.8333421456183316  0.1666568756581057  0.5388641089449635   F   F   F
  0.8333421456183316  0.4166568756581057  0.5388641089449635   F   F   F
  0.8333421456183316  0.6666568756581057  0.5388641089449635   F   F   F
  0.8333421456183316  0.9166568756581057  0.5388641089449635   F   F   F
  0.1666567714389657  0.0833423488661396  0.4763640990662594   F   F   F
  0.1666567714389657  0.3333423488661396  0.4763640990662594   F   F   F
  0.1666567714389657  0.5833423488661396  0.4763640990662594   F   F   F
  0.1666567714389657  0.8333423488661396  0.4763640990662594   F   F   F
  0.4166567714389657  0.0833423488661396  0.4763640990662594   F   F   F
  0.4166567714389657  0.3333423488661396  0.4763640990662594   F   F   F
  0.4166567714389657  0.5833423488661396  0.4763640990662594   F   F   F
  0.4166567714389657  0.8333423488661396  0.4763640990662594   F   F   F
  0.6666567714389657  0.0833423488661396  0.4763640990662594   F   F   F
  0.6666567714389657  0.3333423488661396  0.4763640990662594   F   F   F
  0.6666567714389657  0.5833423488661396  0.4763640990662594   F   F   F
  0.6666567714389657  0.8333423488661396  0.4763640990662594   F   F   F
  0.9166567714389657  0.0833423488661396  0.4763640990662594   F   F   F
  0.9166567714389657  0.3333423488661396  0.4763640990662594   F   F   F
  0.9166567714389657  0.5833423488661396  0.4763640990662594   F   F   F
  0.9166567714389657  0.8333423488661396  0.4763640990662594   F   F   F
  0.0833420212035350  0.1666567869075877  0.6638641089449635   F   F   F
  0.0833420212035350  0.4166567869075877  0.6638641089449635   F   F   F
  0.0833420212035350  0.6666567869075877  0.6638641089449635   F   F   F
  0.0833420212035350  0.9166567869075877  0.6638641089449635   F   F   F
  0.3333420212035350  0.1666567869075877  0.6638641089449635   F   F   F
  0.3333420212035350  0.4166567869075877  0.6638641089449635   F   F   F
  0.3333420212035350  0.6666567869075877  0.6638641089449635   F   F   F
  0.3333420212035350  0.9166567869075877  0.6638641089449635   F   F   F
  0.5833420212035350  0.1666567869075877  0.6638641089449635   F   F   F
  0.5833420212035350  0.4166567869075877  0.6638641089449635   F   F   F
  0.5833420212035350  0.6666567869075877  0.6638641089449635   F   F   F
  0.5833420212035350  0.9166567869075877  0.6638641089449635   F   F   F
  0.8333420212035350  0.1666567869075877  0.6638641089449635   F   F   F
  0.8333420212035350  0.4166567869075877  0.6638641089449635   F   F   F
  0.8333420212035350  0.6666567869075877  0.6638641089449635   F   F   F
  0.8333420212035350  0.9166567869075877  0.6638641089449635   F   F   F
  0.1666566470241690  0.0833422601156144  0.6013640990662594   F   F   F
  0.1666566470241690  0.3333422601156215  0.6013640990662594   F   F   F
  0.1666566470241690  0.5833422601156144  0.6013640990662594   F   F   F
  0.1666566470241690  0.8333422601156144  0.6013640990662594   F   F   F
  0.4166566470241690  0.0833422601156144  0.6013640990662594   F   F   F
  0.4166566470241690  0.3333422601156215  0.6013640990662594   F   F   F
  0.4166566470241690  0.5833422601156144  0.6013640990662594   F   F   F
  0.4166566470241690  0.8333422601156144  0.6013640990662594   F   F   F
  0.6666566470241690  0.0833422601156144  0.6013640990662594   F   F   F
  0.6666566470241690  0.3333422601156215  0.6013640990662594   F   F   F
  0.6666566470241690  0.5833422601156144  0.6013640990662594   F   F   F
  0.6666566470241690  0.8333422601156144  0.6013640990662594   F   F   F
  0.9166566470241690  0.0833422601156144  0.6013640990662594   F   F   F
  0.9166566470241690  0.3333422601156215  0.6013640990662594   F   F   F
  0.9166566470241690  0.5833422601156144  0.6013640990662594   F   F   F
  0.9166566470241690  0.8333422601156144  0.6013640990662594   F   F   F
  0.0835040365411704  0.1666514877094211  0.3389400958234405   T   T   T
  0.0835299115365277  0.4166097222109281  0.3389537517848890   T   T   T
  0.0836785366026714  0.6668924669932007  0.3387781863815917   T   T   T
  0.0838657712352504  0.9168626901974800  0.3387792554317030   T   T   T
  0.3333242090684468  0.1663797004315803  0.3388929681991529   T   T   T
  0.3332274380282071  0.4157182912431119  0.3384305712922053   T   T   T
  0.3326064252251548  0.6671209483007616  0.3391501870438952   T   T   T
  0.3332685265002685  0.9169458912170593  0.3389284074877005   T   T   T
  0.5832816667120254  0.1663854171659218  0.3388190821628878   T   T   T
  0.5833228157189949  0.4154708075258871  0.3382137877706415   T   T   T
  0.5853462898827443  0.6644765408298240  0.3413233395440927   T   T   T
  0.5830560857675817  0.9174901356320171  0.3391289323820763   T   T   T
  0.8335754452827986  0.1665975493287247  0.3390040416138001   T   T   T
  0.8336914008980182  0.4164748130093253  0.3388014381186435   T   T   T
  0.8345677748779242  0.6668644570528187  0.3382177964880811   T   T   T
  0.8344686301250273  0.9168859831271696  0.3384479991862118   T   T   T
  0.1667144893141112  0.0833694416294225  0.3983612311311016   T   T   T
  0.1669531377271500  0.3334198627341838  0.3983640713214899   T   T   T
  0.1666605435913525  0.5832415918606139  0.3984604178039141   T   T   T
  0.1667088634225805  0.8333169021176530  0.3983632695533640   T   T   T
  0.4167772535244540  0.0834172186207448  0.3983896013596133   T   T   T
  0.4169294586661195  0.3335097719820020  0.3982342795558474   T   T   T
  0.4169427823334494  0.5833279671733683  0.3980237231977923   T   T   T
  0.4168062782879475  0.8333570361822592  0.3983800686183346   T   T   T
  0.6668567543301227  0.0834217261875069  0.3984719850462557   T   T   T
  0.6668572588360498  0.3333250090790820  0.3982858120068652   T   T   T
  0.6671085582853454  0.5830721692512019  0.3988295103986796   T   T   T
  0.6668680351060461  0.8331843025273031  0.3979881594142306   T   T   T
  0.9167415288887687  0.0832273438154770  0.3983874498034894   T   T   T
  0.9168419034355065  0.3333158113955462  0.3984022014836872   T   T   T
  0.9167912798745274  0.5832584482375065  0.3982747661461107   T   T   T
  0.9167190156037480  0.8332388778950234  0.3982244321973806   T   T   T
  0.0833222007698211  0.1666770668236666  0.4611358956743672   F   F   F
  0.0833222007698211  0.4166770668236666  0.4611358956743672   F   F   F
  0.0833222007698211  0.6666770668236666  0.4611358956743672   F   F   F
  0.0833222007698211  0.9166770668236666  0.4611358956743672   F   F   F
  0.3333222007698211  0.1666770668236666  0.4611358956743672   F   F   F
  0.3333222007698211  0.4166770668236666  0.4611358956743672   F   F   F
  0.3333222007698211  0.6666770668236666  0.4611358956743672   F   F   F
  0.3333222007698211  0.9166770668236666  0.4611358956743672   F   F   F
  0.5833222007698211  0.1666770668236666  0.4611358956743672   F   F   F
  0.5833222007698211  0.4166770668236666  0.4611358956743672   F   F   F
  0.5833222007698211  0.6666770668236666  0.4611358956743672   F   F   F
  0.5833222007698211  0.9166770668236666  0.4611358956743672   F   F   F
  0.8333222007698211  0.1666770668236666  0.4611358956743672   F   F   F
  0.8333222007698211  0.4166770668236666  0.4611358956743672   F   F   F
  0.8333222007698211  0.6666770668236666  0.4611358956743672   F   F   F
  0.8333222007698211  0.9166770668236666  0.4611358956743672   F   F   F
  0.1666768765361368  0.0833222886438278  0.5236358963144099   F   F   F
  0.1666768765361368  0.3333222886438278  0.5236358963144099   F   F   F
  0.1666768765361368  0.5833222886438278  0.5236358963144099   F   F   F
  0.1666768765361368  0.8333222886438278  0.5236358963144099   F   F   F
  0.4166768765361368  0.0833222886438278  0.5236358963144099   F   F   F
  0.4166768765361368  0.3333222886438278  0.5236358963144099   F   F   F
  0.4166768765361368  0.5833222886438278  0.5236358963144099   F   F   F
  0.4166768765361368  0.8333222886438278  0.5236358963144099   F   F   F
  0.6666768765361368  0.0833222886438278  0.5236358963144099   F   F   F
  0.6666768765361368  0.3333222886438278  0.5236358963144099   F   F   F
  0.6666768765361368  0.5833222886438278  0.5236358963144099   F   F   F
  0.6666768765361368  0.8333222886438278  0.5236358963144099   F   F   F
  0.9166768765361368  0.0833222886438278  0.5236358963144099   F   F   F
  0.9166768765361368  0.3333222886438278  0.5236358963144099   F   F   F
  0.9166768765361368  0.5833222886438278  0.5236358963144099   F   F   F
  0.9166768765361368  0.8333222886438278  0.5236358963144099   F   F   F
  0.0833220763550244  0.1666769780731485  0.5861358956743672   F   F   F
  0.0833220763550244  0.4166769780731485  0.5861358956743672   F   F   F
  0.0833220763550244  0.6666769780731485  0.5861358956743672   F   F   F
  0.0833220763550244  0.9166769780731485  0.5861358956743672   F   F   F
  0.3333220763550244  0.1666769780731485  0.5861358956743672   F   F   F
  0.3333220763550244  0.4166769780731485  0.5861358956743672   F   F   F
  0.3333220763550244  0.6666769780731485  0.5861358956743672   F   F   F
  0.3333220763550244  0.9166769780731485  0.5861358956743672   F   F   F
  0.5833220763550244  0.1666769780731485  0.5861358956743672   F   F   F
  0.5833220763550244  0.4166769780731485  0.5861358956743672   F   F   F
  0.5833220763550244  0.6666769780731485  0.5861358956743672   F   F   F
  0.5833220763550244  0.9166769780731485  0.5861358956743672   F   F   F
  0.8333220763550244  0.1666769780731485  0.5861358956743672   F   F   F
  0.8333220763550244  0.4166769780731485  0.5861358956743672   F   F   F
  0.8333220763550244  0.6666769780731485  0.5861358956743672   F   F   F
  0.8333220763550244  0.9166769780731485  0.5861358956743672   F   F   F
  0.1666767521213401  0.0833221998933027  0.6486358963144099   F   F   F
  0.1666767521213401  0.3333221998933027  0.6486358963144099   F   F   F
  0.1666767521213401  0.5833221998933027  0.6486358963144099   F   F   F
  0.1666767521213401  0.8333221998933027  0.6486358963144099   F   F   F
  0.4166767521213401  0.0833221998933027  0.6486358963144099   F   F   F
  0.4166767521213401  0.3333221998933027  0.6486358963144099   F   F   F
  0.4166767521213401  0.5833221998933027  0.6486358963144099   F   F   F
  0.4166767521213401  0.8333221998933027  0.6486358963144099   F   F   F
  0.6666767521213401  0.0833221998933027  0.6486358963144099   F   F   F
  0.6666767521213401  0.3333221998933027  0.6486358963144099   F   F   F
  0.6666767521213401  0.5833221998933027  0.6486358963144099   F   F   F
  0.6666767521213401  0.8333221998933027  0.6486358963144099   F   F   F
  0.9166767521213401  0.0833221998933027  0.6486358963144099   F   F   F
  0.9166767521213401  0.3333221998933027  0.6486358963144099   F   F   F
  0.9166767521213401  0.5833221998933027  0.6486358963144099   F   F   F
  0.9166767521213401  0.8333221998933027  0.6486358963144099   F   F   F
  0.0833425000000005  0.1666574999999995  0.7015944380000008   F   F   F
  0.0833425000000005  0.4166574999999995  0.7015944380000008   F   F   F
  0.0833425000000005  0.6666574999999995  0.7015944380000008   F   F   F
  0.0833425000000005  0.9166574999999995  0.7015944380000008   F   F   F
  0.3333425000000005  0.1666574999999995  0.7015944380000008   F   F   F
  0.3333425000000005  0.4166574999999995  0.7015944380000008   F   F   F
  0.3333425000000005  0.6666574999999995  0.7015944380000008   F   F   F
  0.3333425000000005  0.9166574999999995  0.7015944380000008   F   F   F
  0.5833425000000005  0.1666574999999995  0.7015944380000008   F   F   F
  0.5833425000000005  0.4166574999999995  0.7015944380000008   F   F   F
  0.5833425000000005  0.6666574999999995  0.7015944380000008   F   F   F
  0.5833425000000005  0.9166574999999995  0.7015944380000008   F   F   F
  0.8333425000000005  0.1666574999999995  0.7015944380000008   F   F   F
  0.8333425000000005  0.4166574999999995  0.7015944380000008   F   F   F
  0.8333425000000005  0.6666574999999995  0.7015944380000008   F   F   F
  0.8333425000000005  0.9166574999999995  0.7015944380000008   F   F   F
  0.5595155895885842  0.6931648347155976  0.2920656788220465   T   T   T
  0.6017097830067256  0.6511780892121428  0.2852763208623205   T   T   T
 
  0.00000000E+00  0.00000000E+00  0.00000000E+00
  0.00000000E+00  0.00000000E+00  0.00000000E+00
  0.00000000E+00  0.00000000E+00  0.00000000E+00
  0.00000000E+00  0.00000000E+00  0.00000000E+00
  0.00000000E+00  0.00000000E+00  0.00000000E+00
  0.00000000E+00  0.00000000E+00  0.00000000E+00
  0.00000000E+00  0.00000000E+00  0.00000000E+00
  0.00000000E+00  0.00000000E+00  0.00000000E+00
  0.00000000E+00  0.00000000E+00  0.00000000E+00
  0.00000000E+00  0.00000000E+00  0.00000000E+00
  0.00000000E+00  0.00000000E+00  0.00000000E+00
  0.00000000E+00  0.00000000E+00  0.00000000E+00
  0.00000000E+00  0.00000000E+00  0.00000000E+00
  0.00000000E+00  0.00000000E+00  0.00000000E+00
  0.00000000E+00  0.00000000E+00  0.00000000E+00
  0.00000000E+00  0.00000000E+00  0.00000000E+00
  0.00000000E+00  0.00000000E+00  0.00000000E+00
  0.00000000E+00  0.00000000E+00  0.00000000E+00
  0.00000000E+00  0.00000000E+00  0.00000000E+00
  0.00000000E+00  0.00000000E+00  0.00000000E+00
  0.00000000E+00  0.00000000E+00  0.00000000E+00
  0.00000000E+00  0.00000000E+00  0.00000000E+00
  0.00000000E+00  0.00000000E+00  0.00000000E+00
  0.00000000E+00  0.00000000E+00  0.00000000E+00
  0.00000000E+00  0.00000000E+00  0.00000000E+00
  0.00000000E+00  0.00000000E+00  0.00000000E+00
  0.00000000E+00  0.00000000E+00  0.00000000E+00
  0.00000000E+00  0.00000000E+00  0.00000000E+00
  0.00000000E+00  0.00000000E+00  0.00000000E+00
  0.00000000E+00  0.00000000E+00  0.00000000E+00
  0.00000000E+00  0.00000000E+00  0.00000000E+00
  0.00000000E+00  0.00000000E+00  0.00000000E+00
  0.00000000E+00  0.00000000E+00  0.00000000E+00
  0.00000000E+00  0.00000000E+00  0.00000000E+00
  0.00000000E+00  0.00000000E+00  0.00000000E+00
  0.00000000E+00  0.00000000E+00  0.00000000E+00
  0.00000000E+00  0.00000000E+00  0.00000000E+00
  0.00000000E+00  0.00000000E+00  0.00000000E+00
  0.00000000E+00  0.00000000E+00  0.00000000E+00
  0.00000000E+00  0.00000000E+00  0.00000000E+00
  0.00000000E+00  0.00000000E+00  0.00000000E+00
  0.00000000E+00  0.00000000E+00  0.00000000E+00
  0.00000000E+00  0.00000000E+00  0.00000000E+00
  0.00000000E+00  0.00000000E+00  0.00000000E+00
  0.00000000E+00  0.00000000E+00  0.00000000E+00
  0.00000000E+00  0.00000000E+00  0.00000000E+00
  0.00000000E+00  0.00000000E+00  0.00000000E+00
  0.00000000E+00  0.00000000E+00  0.00000000E+00
  0.00000000E+00  0.00000000E+00  0.00000000E+00
  0.00000000E+00  0.00000000E+00  0.00000000E+00
  0.00000000E+00  0.00000000E+00  0.00000000E+00
  0.00000000E+00  0.00000000E+00  0.00000000E+00
  0.00000000E+00  0.00000000E+00  0.00000000E+00
  0.00000000E+00  0.00000000E+00  0.00000000E+00
  0.00000000E+00  0.00000000E+00  0.00000000E+00
  0.00000000E+00  0.00000000E+00  0.00000000E+00
  0.00000000E+00  0.00000000E+00  0.00000000E+00
  0.00000000E+00  0.00000000E+00  0.00000000E+00
  0.00000000E+00  0.00000000E+00  0.00000000E+00
  0.00000000E+00  0.00000000E+00  0.00000000E+00
  0.00000000E+00  0.00000000E+00  0.00000000E+00
  0.00000000E+00  0.00000000E+00  0.00000000E+00
  0.00000000E+00  0.00000000E+00  0.00000000E+00
  0.00000000E+00  0.00000000E+00  0.00000000E+00
  0.00000000E+00  0.00000000E+00  0.00000000E+00
  0.00000000E+00  0.00000000E+00  0.00000000E+00
  0.00000000E+00  0.00000000E+00  0.00000000E+00
  0.00000000E+00  0.00000000E+00  0.00000000E+00
  0.00000000E+00  0.00000000E+00  0.00000000E+00
  0.00000000E+00  0.00000000E+00  0.00000000E+00
  0.00000000E+00  0.00000000E+00  0.00000000E+00
  0.00000000E+00  0.00000000E+00  0.00000000E+00
  0.00000000E+00  0.00000000E+00  0.00000000E+00
  0.00000000E+00  0.00000000E+00  0.00000000E+00
  0.00000000E+00  0.00000000E+00  0.00000000E+00
  0.00000000E+00  0.00000000E+00  0.00000000E+00
  0.00000000E+00  0.00000000E+00  0.00000000E+00
  0.00000000E+00  0.00000000E+00  0.00000000E+00
  0.00000000E+00  0.00000000E+00  0.00000000E+00
  0.00000000E+00  0.00000000E+00  0.00000000E+00
  0.00000000E+00  0.00000000E+00  0.00000000E+00
  0.00000000E+00  0.00000000E+00  0.00000000E+00
  0.00000000E+00  0.00000000E+00  0.00000000E+00
  0.00000000E+00  0.00000000E+00  0.00000000E+00
  0.00000000E+00  0.00000000E+00  0.00000000E+00
  0.00000000E+00  0.00000000E+00  0.00000000E+00
  0.00000000E+00  0.00000000E+00  0.00000000E+00
  0.00000000E+00  0.00000000E+00  0.00000000E+00
  0.00000000E+00  0.00000000E+00  0.00000000E+00
  0.00000000E+00  0.00000000E+00  0.00000000E+00
  0.00000000E+00  0.00000000E+00  0.00000000E+00
  0.00000000E+00  0.00000000E+00  0.00000000E+00
  0.00000000E+00  0.00000000E+00  0.00000000E+00
  0.00000000E+00  0.00000000E+00  0.00000000E+00
  0.00000000E+00  0.00000000E+00  0.00000000E+00
  0.00000000E+00  0.00000000E+00  0.00000000E+00
  0.00000000E+00  0.00000000E+00  0.00000000E+00
  0.00000000E+00  0.00000000E+00  0.00000000E+00
  0.00000000E+00  0.00000000E+00  0.00000000E+00
  0.00000000E+00  0.00000000E+00  0.00000000E+00
  0.00000000E+00  0.00000000E+00  0.00000000E+00
  0.00000000E+00  0.00000000E+00  0.00000000E+00
  0.00000000E+00  0.00000000E+00  0.00000000E+00
  0.00000000E+00  0.00000000E+00  0.00000000E+00
  0.00000000E+00  0.00000000E+00  0.00000000E+00
  0.00000000E+00  0.00000000E+00  0.00000000E+00
  0.00000000E+00  0.00000000E+00  0.00000000E+00
  0.00000000E+00  0.00000000E+00  0.00000000E+00
  0.00000000E+00  0.00000000E+00  0.00000000E+00
  0.00000000E+00  0.00000000E+00  0.00000000E+00
  0.00000000E+00  0.00000000E+00  0.00000000E+00
  0.00000000E+00  0.00000000E+00  0.00000000E+00
  0.00000000E+00  0.00000000E+00  0.00000000E+00
  0.00000000E+00  0.00000000E+00  0.00000000E+00
  0.00000000E+00  0.00000000E+00  0.00000000E+00
  0.00000000E+00  0.00000000E+00  0.00000000E+00
  0.00000000E+00  0.00000000E+00  0.00000000E+00
  0.00000000E+00  0.00000000E+00  0.00000000E+00
  0.00000000E+00  0.00000000E+00  0.00000000E+00
  0.00000000E+00  0.00000000E+00  0.00000000E+00
  0.00000000E+00  0.00000000E+00  0.00000000E+00
  0.00000000E+00  0.00000000E+00  0.00000000E+00
  0.00000000E+00  0.00000000E+00  0.00000000E+00
  0.00000000E+00  0.00000000E+00  0.00000000E+00
  0.00000000E+00  0.00000000E+00  0.00000000E+00
  0.00000000E+00  0.00000000E+00  0.00000000E+00
  0.00000000E+00  0.00000000E+00  0.00000000E+00
  0.00000000E+00  0.00000000E+00  0.00000000E+00
  0.00000000E+00  0.00000000E+00  0.00000000E+00
  0.00000000E+00  0.00000000E+00  0.00000000E+00
  0.00000000E+00  0.00000000E+00  0.00000000E+00
  0.00000000E+00  0.00000000E+00  0.00000000E+00
  0.00000000E+00  0.00000000E+00  0.00000000E+00
  0.00000000E+00  0.00000000E+00  0.00000000E+00
  0.00000000E+00  0.00000000E+00  0.00000000E+00
  0.00000000E+00  0.00000000E+00  0.00000000E+00
  0.00000000E+00  0.00000000E+00  0.00000000E+00
  0.00000000E+00  0.00000000E+00  0.00000000E+00
  0.00000000E+00  0.00000000E+00  0.00000000E+00
  0.00000000E+00  0.00000000E+00  0.00000000E+00
  0.00000000E+00  0.00000000E+00  0.00000000E+00
  0.00000000E+00  0.00000000E+00  0.00000000E+00
  0.00000000E+00  0.00000000E+00  0.00000000E+00
  0.00000000E+00  0.00000000E+00  0.00000000E+00
  0.00000000E+00  0.00000000E+00  0.00000000E+00
  0.00000000E+00  0.00000000E+00  0.00000000E+00
  0.00000000E+00  0.00000000E+00  0.00000000E+00
  0.00000000E+00  0.00000000E+00  0.00000000E+00
  0.00000000E+00  0.00000000E+00  0.00000000E+00
  0.00000000E+00  0.00000000E+00  0.00000000E+00
  0.00000000E+00  0.00000000E+00  0.00000000E+00
  0.00000000E+00  0.00000000E+00  0.00000000E+00
  0.00000000E+00  0.00000000E+00  0.00000000E+00
  0.00000000E+00  0.00000000E+00  0.00000000E+00
  0.00000000E+00  0.00000000E+00  0.00000000E+00
  0.00000000E+00  0.00000000E+00  0.00000000E+00
  0.00000000E+00  0.00000000E+00  0.00000000E+00
  0.00000000E+00  0.00000000E+00  0.00000000E+00
  0.00000000E+00  0.00000000E+00  0.00000000E+00
  0.00000000E+00  0.00000000E+00  0.00000000E+00
  0.00000000E+00  0.00000000E+00  0.00000000E+00
  0.00000000E+00  0.00000000E+00  0.00000000E+00
  0.00000000E+00  0.00000000E+00  0.00000000E+00
  0.00000000E+00  0.00000000E+00  0.00000000E+00
  0.00000000E+00  0.00000000E+00  0.00000000E+00
  0.00000000E+00  0.00000000E+00  0.00000000E+00
  0.00000000E+00  0.00000000E+00  0.00000000E+00
  0.00000000E+00  0.00000000E+00  0.00000000E+00
  0.00000000E+00  0.00000000E+00  0.00000000E+00
  0.00000000E+00  0.00000000E+00  0.00000000E+00
  0.00000000E+00  0.00000000E+00  0.00000000E+00
  0.00000000E+00  0.00000000E+00  0.00000000E+00
  0.00000000E+00  0.00000000E+00  0.00000000E+00
  0.00000000E+00  0.00000000E+00  0.00000000E+00
  0.00000000E+00  0.00000000E+00  0.00000000E+00
  0.00000000E+00  0.00000000E+00  0.00000000E+00
  0.00000000E+00  0.00000000E+00  0.00000000E+00
  0.00000000E+00  0.00000000E+00  0.00000000E+00
  0.00000000E+00  0.00000000E+00  0.00000000E+00
  0.00000000E+00  0.00000000E+00  0.00000000E+00
  0.00000000E+00  0.00000000E+00  0.00000000E+00
  0.00000000E+00  0.00000000E+00  0.00000000E+00
  0.00000000E+00  0.00000000E+00  0.00000000E+00
  0.00000000E+00  0.00000000E+00  0.00000000E+00
  0.00000000E+00  0.00000000E+00  0.00000000E+00
  0.00000000E+00  0.00000000E+00  0.00000000E+00
  0.00000000E+00  0.00000000E+00  0.00000000E+00
  0.00000000E+00  0.00000000E+00  0.00000000E+00
  0.00000000E+00  0.00000000E+00  0.00000000E+00
  0.00000000E+00  0.00000000E+00  0.00000000E+00
  0.00000000E+00  0.00000000E+00  0.00000000E+00
  0.00000000E+00  0.00000000E+00  0.00000000E+00
  0.00000000E+00  0.00000000E+00  0.00000000E+00
  0.00000000E+00  0.00000000E+00  0.00000000E+00
  0.00000000E+00  0.00000000E+00  0.00000000E+00
  0.00000000E+00  0.00000000E+00  0.00000000E+00
  0.00000000E+00  0.00000000E+00  0.00000000E+00
  0.00000000E+00  0.00000000E+00  0.00000000E+00
  0.00000000E+00  0.00000000E+00  0.00000000E+00
  0.00000000E+00  0.00000000E+00  0.00000000E+00
  0.00000000E+00  0.00000000E+00  0.00000000E+00
  0.00000000E+00  0.00000000E+00  0.00000000E+00
  0.00000000E+00  0.00000000E+00  0.00000000E+00
  0.00000000E+00  0.00000000E+00  0.00000000E+00
  0.00000000E+00  0.00000000E+00  0.00000000E+00
  0.00000000E+00  0.00000000E+00  0.00000000E+00
  0.00000000E+00  0.00000000E+00  0.00000000E+00
  0.00000000E+00  0.00000000E+00  0.00000000E+00
  0.00000000E+00  0.00000000E+00  0.00000000E+00
  0.00000000E+00  0.00000000E+00  0.00000000E+00
