Zn96 H16 O96                            
    1.000000000000000     
    12.9159907272337371    0.0000000000000000    0.0000000000000008
    -6.4575301003323453   11.1858448318051593    0.0000000000000008
     0.0000000000000000    0.0000000000000000   41.8715658066988325
   Zn   O    H    O    H 
    96    96    16     1     1
Selective dynamics
Direct
  0.0832179050761759  0.1665632310999476  0.4127318729737091   T   T   T
  0.0826462204075330  0.4164292599069134  0.4128230002418303   T   T   T
  0.0829800498523250  0.6671983520446058  0.4127647864457283   T   T   T
  0.0832603769065128  0.9171040856414295  0.4126206899132328   T   T   T
  0.3326559607146612  0.1659433269559580  0.4128649404491213   T   T   T
  0.3335384009767318  0.4178904327301914  0.4125638519375757   T   T   T
  0.3332473370087110  0.6668368294715616  0.4121865923584804   T   T   T
  0.3328898212452544  0.9174092663025407  0.4128183295470741   T   T   T
  0.5835148454012610  0.1671857822827962  0.4126254530138875   T   T   T
  0.5841109999288283  0.4166574513966131  0.4130289876803834   T   T   T
  0.5825837289754423  0.6666767637826246  0.4124100962251969   T   T   T
  0.5840870364275558  0.9177924816909067  0.4129210280097058   T   T   T
  0.8334969223314538  0.1669046911986027  0.4127048786017960   T   T   T
  0.8330237304754999  0.4165493124916191  0.4126431547221687   T   T   T
  0.8335628210599283  0.6670670060047408  0.4127813699490150   T   T   T
  0.8335483909573929  0.9170431998147651  0.4127668168218986   T   T   T
  0.1663461921257353  0.0831653036026984  0.3474692710352138   T   T   T
  0.1608641848204476  0.3308278659890497  0.3481960085503118   T   T   T
  0.1642786580332980  0.5832437776647972  0.3481779990046397   T   T   T
  0.1664560928556611  0.8336684290013003  0.3476559633486814   T   T   T
  0.4172472561658321  0.0837146529716617  0.3477395355702962   T   T   T
  0.4202363936327938  0.3294237021633046  0.3493247630898566   T   T   T
  0.4173058272001408  0.5874432795409418  0.3457383593267712   T   T   T
  0.4179829296554038  0.8375509110340559  0.3487134899905591   T   T   T
  0.6670009591506989  0.0843011509824848  0.3477156050872959   T   T   T
  0.6667221378322294  0.3339589695117298  0.3473280063572947   T   T   T
  0.6677243954893441  0.5828393037264908  0.3485635455437766   T   T   T
  0.6676860367348085  0.8359306119958431  0.3481572273214003   T   T   T
  0.9162405080934071  0.0835209789952735  0.3477381450595962   T   T   T
  0.9160991348035269  0.3336045685311212  0.3476301240445952   T   T   T
  0.9160895394037541  0.5830429103903293  0.3478612765618387   T   T   T
  0.9165555177613008  0.8335644035082942  0.3477048373140607   T   T   T
  0.0833421456183316  0.1666568756581057  0.5388641089449635   F   F   F
  0.0833421456183316  0.4166568756581057  0.5388641089449635   F   F   F
  0.0833421456183316  0.6666568756581057  0.5388641089449635   F   F   F
  0.0833421456183316  0.9166568756581057  0.5388641089449635   F   F   F
  0.3333421456183316  0.1666568756581057  0.5388641089449635   F   F   F
  0.3333421456183316  0.4166568756581057  0.5388641089449635   F   F   F
  0.3333421456183316  0.6666568756581057  0.5388641089449635   F   F   F
  0.3333421456183316  0.9166568756581057  0.5388641089449635   F   F   F
  0.5833421456183316  0.1666568756581057  0.5388641089449635   F   F   F
  0.5833421456183316  0.4166568756581057  0.5388641089449635   F   F   F
  0.5833421456183316  0.6666568756581057  0.5388641089449635   F   F   F
  0.5833421456183316  0.9166568756581057  0.5388641089449635   F   F   F
  0.8333421456183316  0.1666568756581057  0.5388641089449635   F   F   F
  0.8333421456183316  0.4166568756581057  0.5388641089449635   F   F   F
  0.8333421456183316  0.6666568756581057  0.5388641089449635   F   F   F
  0.8333421456183316  0.9166568756581057  0.5388641089449635   F   F   F
  0.1666567714389657  0.0833423488661396  0.4763640990662594   F   F   F
  0.1666567714389657  0.3333423488661396  0.4763640990662594   F   F   F
  0.1666567714389657  0.5833423488661396  0.4763640990662594   F   F   F
  0.1666567714389657  0.8333423488661396  0.4763640990662594   F   F   F
  0.4166567714389657  0.0833423488661396  0.4763640990662594   F   F   F
  0.4166567714389657  0.3333423488661396  0.4763640990662594   F   F   F
  0.4166567714389657  0.5833423488661396  0.4763640990662594   F   F   F
  0.4166567714389657  0.8333423488661396  0.4763640990662594   F   F   F
  0.6666567714389657  0.0833423488661396  0.4763640990662594   F   F   F
  0.6666567714389657  0.3333423488661396  0.4763640990662594   F   F   F
  0.6666567714389657  0.5833423488661396  0.4763640990662594   F   F   F
  0.6666567714389657  0.8333423488661396  0.4763640990662594   F   F   F
  0.9166567714389657  0.0833423488661396  0.4763640990662594   F   F   F
  0.9166567714389657  0.3333423488661396  0.4763640990662594   F   F   F
  0.9166567714389657  0.5833423488661396  0.4763640990662594   F   F   F
  0.9166567714389657  0.8333423488661396  0.4763640990662594   F   F   F
  0.0833420212035350  0.1666567869075877  0.6638641089449635   F   F   F
  0.0833420212035350  0.4166567869075877  0.6638641089449635   F   F   F
  0.0833420212035350  0.6666567869075877  0.6638641089449635   F   F   F
  0.0833420212035350  0.9166567869075877  0.6638641089449635   F   F   F
  0.3333420212035350  0.1666567869075877  0.6638641089449635   F   F   F
  0.3333420212035350  0.4166567869075877  0.6638641089449635   F   F   F
  0.3333420212035350  0.6666567869075877  0.6638641089449635   F   F   F
  0.3333420212035350  0.9166567869075877  0.6638641089449635   F   F   F
  0.5833420212035350  0.1666567869075877  0.6638641089449635   F   F   F
  0.5833420212035350  0.4166567869075877  0.6638641089449635   F   F   F
  0.5833420212035350  0.6666567869075877  0.6638641089449635   F   F   F
  0.5833420212035350  0.9166567869075877  0.6638641089449635   F   F   F
  0.8333420212035350  0.1666567869075877  0.6638641089449635   F   F   F
  0.8333420212035350  0.4166567869075877  0.6638641089449635   F   F   F
  0.8333420212035350  0.6666567869075877  0.6638641089449635   F   F   F
  0.8333420212035350  0.9166567869075877  0.6638641089449635   F   F   F
  0.1666566470241690  0.0833422601156144  0.6013640990662594   F   F   F
  0.1666566470241690  0.3333422601156215  0.6013640990662594   F   F   F
  0.1666566470241690  0.5833422601156144  0.6013640990662594   F   F   F
  0.1666566470241690  0.8333422601156144  0.6013640990662594   F   F   F
  0.4166566470241690  0.0833422601156144  0.6013640990662594   F   F   F
  0.4166566470241690  0.3333422601156215  0.6013640990662594   F   F   F
  0.4166566470241690  0.5833422601156144  0.6013640990662594   F   F   F
  0.4166566470241690  0.8333422601156144  0.6013640990662594   F   F   F
  0.6666566470241690  0.0833422601156144  0.6013640990662594   F   F   F
  0.6666566470241690  0.3333422601156215  0.6013640990662594   F   F   F
  0.6666566470241690  0.5833422601156144  0.6013640990662594   F   F   F
  0.6666566470241690  0.8333422601156144  0.6013640990662594   F   F   F
  0.9166566470241690  0.0833422601156144  0.6013640990662594   F   F   F
  0.9166566470241690  0.3333422601156215  0.6013640990662594   F   F   F
  0.9166566470241690  0.5833422601156144  0.6013640990662594   F   F   F
  0.9166566470241690  0.8333422601156144  0.6013640990662594   F   F   F
  0.0823328489748869  0.1654227871570603  0.3383834707038414   T   T   T
  0.0824061995678328  0.4176022070876486  0.3384938963296171   T   T   T
  0.0823198554055445  0.6674086809166642  0.3388236658644337   T   T   T
  0.0829063159180672  0.9164934722414984  0.3388013922626461   T   T   T
  0.3325841332258788  0.1650155216590888  0.3384155135977094   T   T   T
  0.3315118255249417  0.4110035738459967  0.3424202084786359   T   T   T
  0.3312421285242922  0.6709942498229899  0.3416254508624461   T   T   T
  0.3326176770386778  0.9176293353074012  0.3388007948907701   T   T   T
  0.5834250683767366  0.1671698084822397  0.3386100695757666   T   T   T
  0.5839737511785241  0.4176728767241267  0.3374065753759029   T   T   T
  0.5875543120169905  0.6692668841696743  0.3395844110179785   T   T   T
  0.5833831281511563  0.9176536628444268  0.3386101376619438   T   T   T
  0.8334305901888168  0.1671143331350614  0.3386566362189939   T   T   T
  0.8333071006215079  0.4170716463537640  0.3385995356816999   T   T   T
  0.8339519664060868  0.6671979766222671  0.3389030140619980   T   T   T
  0.8338213195815514  0.9171495901834408  0.3388095231616032   T   T   T
  0.1666683662097812  0.0837661557424567  0.3981117084530676   T   T   T
  0.1663839770211506  0.3333928003295342  0.3983383861935612   T   T   T
  0.1654470201717056  0.5829176311432102  0.3986728396143408   T   T   T
  0.1666013745997277  0.8336315453835229  0.3982817078576790   T   T   T
  0.4168836591555449  0.0838659449211309  0.3982702597679451   T   T   T
  0.4170331684730417  0.3333774962562286  0.3987337733619941   T   T   T
  0.4167109999153247  0.5836368699554638  0.3969865123949710   T   T   T
  0.4174412503635554  0.8350845181387612  0.3988868705016897   T   T   T
  0.6669492771981125  0.0839489612770551  0.3982647989840247   T   T   T
  0.6665420882323969  0.3336002864848185  0.3979934781593666   T   T   T
  0.6664230245140899  0.5830201828971302  0.3985155011907479   T   T   T
  0.6666439544583436  0.8338961915386249  0.3984363483358250   T   T   T
  0.9166984025739321  0.0835904808092666  0.3982966991797882   T   T   T
  0.9164085475976469  0.3333279319540799  0.3982106756980844   T   T   T
  0.9163298708930555  0.5832734311190100  0.3983424547734558   T   T   T
  0.9164514241100470  0.8334804845064955  0.3983069491225168   T   T   T
  0.0833222007698211  0.1666770668236666  0.4611358956743672   F   F   F
  0.0833222007698211  0.4166770668236666  0.4611358956743672   F   F   F
  0.0833222007698211  0.6666770668236666  0.4611358956743672   F   F   F
  0.0833222007698211  0.9166770668236666  0.4611358956743672   F   F   F
  0.3333222007698211  0.1666770668236666  0.4611358956743672   F   F   F
  0.3333222007698211  0.4166770668236666  0.4611358956743672   F   F   F
  0.3333222007698211  0.6666770668236666  0.4611358956743672   F   F   F
  0.3333222007698211  0.9166770668236666  0.4611358956743672   F   F   F
  0.5833222007698211  0.1666770668236666  0.4611358956743672   F   F   F
  0.5833222007698211  0.4166770668236666  0.4611358956743672   F   F   F
  0.5833222007698211  0.6666770668236666  0.4611358956743672   F   F   F
  0.5833222007698211  0.9166770668236666  0.4611358956743672   F   F   F
  0.8333222007698211  0.1666770668236666  0.4611358956743672   F   F   F
  0.8333222007698211  0.4166770668236666  0.4611358956743672   F   F   F
  0.8333222007698211  0.6666770668236666  0.4611358956743672   F   F   F
  0.8333222007698211  0.9166770668236666  0.4611358956743672   F   F   F
  0.1666768765361368  0.0833222886438278  0.5236358963144099   F   F   F
  0.1666768765361368  0.3333222886438278  0.5236358963144099   F   F   F
  0.1666768765361368  0.5833222886438278  0.5236358963144099   F   F   F
  0.1666768765361368  0.8333222886438278  0.5236358963144099   F   F   F
  0.4166768765361368  0.0833222886438278  0.5236358963144099   F   F   F
  0.4166768765361368  0.3333222886438278  0.5236358963144099   F   F   F
  0.4166768765361368  0.5833222886438278  0.5236358963144099   F   F   F
  0.4166768765361368  0.8333222886438278  0.5236358963144099   F   F   F
  0.6666768765361368  0.0833222886438278  0.5236358963144099   F   F   F
  0.6666768765361368  0.3333222886438278  0.5236358963144099   F   F   F
  0.6666768765361368  0.5833222886438278  0.5236358963144099   F   F   F
  0.6666768765361368  0.8333222886438278  0.5236358963144099   F   F   F
  0.9166768765361368  0.0833222886438278  0.5236358963144099   F   F   F
  0.9166768765361368  0.3333222886438278  0.5236358963144099   F   F   F
  0.9166768765361368  0.5833222886438278  0.5236358963144099   F   F   F
  0.9166768765361368  0.8333222886438278  0.5236358963144099   F   F   F
  0.0833220763550244  0.1666769780731485  0.5861358956743672   F   F   F
  0.0833220763550244  0.4166769780731485  0.5861358956743672   F   F   F
  0.0833220763550244  0.6666769780731485  0.5861358956743672   F   F   F
  0.0833220763550244  0.9166769780731485  0.5861358956743672   F   F   F
  0.3333220763550244  0.1666769780731485  0.5861358956743672   F   F   F
  0.3333220763550244  0.4166769780731485  0.5861358956743672   F   F   F
  0.3333220763550244  0.6666769780731485  0.5861358956743672   F   F   F
  0.3333220763550244  0.9166769780731485  0.5861358956743672   F   F   F
  0.5833220763550244  0.1666769780731485  0.5861358956743672   F   F   F
  0.5833220763550244  0.4166769780731485  0.5861358956743672   F   F   F
  0.5833220763550244  0.6666769780731485  0.5861358956743672   F   F   F
  0.5833220763550244  0.9166769780731485  0.5861358956743672   F   F   F
  0.8333220763550244  0.1666769780731485  0.5861358956743672   F   F   F
  0.8333220763550244  0.4166769780731485  0.5861358956743672   F   F   F
  0.8333220763550244  0.6666769780731485  0.5861358956743672   F   F   F
  0.8333220763550244  0.9166769780731485  0.5861358956743672   F   F   F
  0.1666767521213401  0.0833221998933027  0.6486358963144099   F   F   F
  0.1666767521213401  0.3333221998933027  0.6486358963144099   F   F   F
  0.1666767521213401  0.5833221998933027  0.6486358963144099   F   F   F
  0.1666767521213401  0.8333221998933027  0.6486358963144099   F   F   F
  0.4166767521213401  0.0833221998933027  0.6486358963144099   F   F   F
  0.4166767521213401  0.3333221998933027  0.6486358963144099   F   F   F
  0.4166767521213401  0.5833221998933027  0.6486358963144099   F   F   F
  0.4166767521213401  0.8333221998933027  0.6486358963144099   F   F   F
  0.6666767521213401  0.0833221998933027  0.6486358963144099   F   F   F
  0.6666767521213401  0.3333221998933027  0.6486358963144099   F   F   F
  0.6666767521213401  0.5833221998933027  0.6486358963144099   F   F   F
  0.6666767521213401  0.8333221998933027  0.6486358963144099   F   F   F
  0.9166767521213401  0.0833221998933027  0.6486358963144099   F   F   F
  0.9166767521213401  0.3333221998933027  0.6486358963144099   F   F   F
  0.9166767521213401  0.5833221998933027  0.6486358963144099   F   F   F
  0.9166767521213401  0.8333221998933027  0.6486358963144099   F   F   F
  0.0833425000000005  0.1666574999999995  0.7015944380000008   F   F   F
  0.0833425000000005  0.4166574999999995  0.7015944380000008   F   F   F
  0.0833425000000005  0.6666574999999995  0.7015944380000008   F   F   F
  0.0833425000000005  0.9166574999999995  0.7015944380000008   F   F   F
  0.3333425000000005  0.1666574999999995  0.7015944380000008   F   F   F
  0.3333425000000005  0.4166574999999995  0.7015944380000008   F   F   F
  0.3333425000000005  0.6666574999999995  0.7015944380000008   F   F   F
  0.3333425000000005  0.9166574999999995  0.7015944380000008   F   F   F
  0.5833425000000005  0.1666574999999995  0.7015944380000008   F   F   F
  0.5833425000000005  0.4166574999999995  0.7015944380000008   F   F   F
  0.5833425000000005  0.6666574999999995  0.7015944380000008   F   F   F
  0.5833425000000005  0.9166574999999995  0.7015944380000008   F   F   F
  0.8333425000000005  0.1666574999999995  0.7015944380000008   F   F   F
  0.8333425000000005  0.4166574999999995  0.7015944380000008   F   F   F
  0.8333425000000005  0.6666574999999995  0.7015944380000008   F   F   F
  0.8333425000000005  0.9166574999999995  0.7015944380000008   F   F   F
  0.3854829664094166  0.5238523914751136  0.2989264849620864   T   T   T
  0.4535054722990414  0.5127115066615298  0.2935498395917266   T   T   T
 
  0.00000000E+00  0.00000000E+00  0.00000000E+00
  0.00000000E+00  0.00000000E+00  0.00000000E+00
  0.00000000E+00  0.00000000E+00  0.00000000E+00
  0.00000000E+00  0.00000000E+00  0.00000000E+00
  0.00000000E+00  0.00000000E+00  0.00000000E+00
  0.00000000E+00  0.00000000E+00  0.00000000E+00
  0.00000000E+00  0.00000000E+00  0.00000000E+00
  0.00000000E+00  0.00000000E+00  0.00000000E+00
  0.00000000E+00  0.00000000E+00  0.00000000E+00
  0.00000000E+00  0.00000000E+00  0.00000000E+00
  0.00000000E+00  0.00000000E+00  0.00000000E+00
  0.00000000E+00  0.00000000E+00  0.00000000E+00
  0.00000000E+00  0.00000000E+00  0.00000000E+00
  0.00000000E+00  0.00000000E+00  0.00000000E+00
  0.00000000E+00  0.00000000E+00  0.00000000E+00
  0.00000000E+00  0.00000000E+00  0.00000000E+00
  0.00000000E+00  0.00000000E+00  0.00000000E+00
  0.00000000E+00  0.00000000E+00  0.00000000E+00
  0.00000000E+00  0.00000000E+00  0.00000000E+00
  0.00000000E+00  0.00000000E+00  0.00000000E+00
  0.00000000E+00  0.00000000E+00  0.00000000E+00
  0.00000000E+00  0.00000000E+00  0.00000000E+00
  0.00000000E+00  0.00000000E+00  0.00000000E+00
  0.00000000E+00  0.00000000E+00  0.00000000E+00
  0.00000000E+00  0.00000000E+00  0.00000000E+00
  0.00000000E+00  0.00000000E+00  0.00000000E+00
  0.00000000E+00  0.00000000E+00  0.00000000E+00
  0.00000000E+00  0.00000000E+00  0.00000000E+00
  0.00000000E+00  0.00000000E+00  0.00000000E+00
  0.00000000E+00  0.00000000E+00  0.00000000E+00
  0.00000000E+00  0.00000000E+00  0.00000000E+00
  0.00000000E+00  0.00000000E+00  0.00000000E+00
  0.00000000E+00  0.00000000E+00  0.00000000E+00
  0.00000000E+00  0.00000000E+00  0.00000000E+00
  0.00000000E+00  0.00000000E+00  0.00000000E+00
  0.00000000E+00  0.00000000E+00  0.00000000E+00
  0.00000000E+00  0.00000000E+00  0.00000000E+00
  0.00000000E+00  0.00000000E+00  0.00000000E+00
  0.00000000E+00  0.00000000E+00  0.00000000E+00
  0.00000000E+00  0.00000000E+00  0.00000000E+00
  0.00000000E+00  0.00000000E+00  0.00000000E+00
  0.00000000E+00  0.00000000E+00  0.00000000E+00
  0.00000000E+00  0.00000000E+00  0.00000000E+00
  0.00000000E+00  0.00000000E+00  0.00000000E+00
  0.00000000E+00  0.00000000E+00  0.00000000E+00
  0.00000000E+00  0.00000000E+00  0.00000000E+00
  0.00000000E+00  0.00000000E+00  0.00000000E+00
  0.00000000E+00  0.00000000E+00  0.00000000E+00
  0.00000000E+00  0.00000000E+00  0.00000000E+00
  0.00000000E+00  0.00000000E+00  0.00000000E+00
  0.00000000E+00  0.00000000E+00  0.00000000E+00
  0.00000000E+00  0.00000000E+00  0.00000000E+00
  0.00000000E+00  0.00000000E+00  0.00000000E+00
  0.00000000E+00  0.00000000E+00  0.00000000E+00
  0.00000000E+00  0.00000000E+00  0.00000000E+00
  0.00000000E+00  0.00000000E+00  0.00000000E+00
  0.00000000E+00  0.00000000E+00  0.00000000E+00
  0.00000000E+00  0.00000000E+00  0.00000000E+00
  0.00000000E+00  0.00000000E+00  0.00000000E+00
  0.00000000E+00  0.00000000E+00  0.00000000E+00
  0.00000000E+00  0.00000000E+00  0.00000000E+00
  0.00000000E+00  0.00000000E+00  0.00000000E+00
  0.00000000E+00  0.00000000E+00  0.00000000E+00
  0.00000000E+00  0.00000000E+00  0.00000000E+00
  0.00000000E+00  0.00000000E+00  0.00000000E+00
  0.00000000E+00  0.00000000E+00  0.00000000E+00
  0.00000000E+00  0.00000000E+00  0.00000000E+00
  0.00000000E+00  0.00000000E+00  0.00000000E+00
  0.00000000E+00  0.00000000E+00  0.00000000E+00
  0.00000000E+00  0.00000000E+00  0.00000000E+00
  0.00000000E+00  0.00000000E+00  0.00000000E+00
  0.00000000E+00  0.00000000E+00  0.00000000E+00
  0.00000000E+00  0.00000000E+00  0.00000000E+00
  0.00000000E+00  0.00000000E+00  0.00000000E+00
  0.00000000E+00  0.00000000E+00  0.00000000E+00
  0.00000000E+00  0.00000000E+00  0.00000000E+00
  0.00000000E+00  0.00000000E+00  0.00000000E+00
  0.00000000E+00  0.00000000E+00  0.00000000E+00
  0.00000000E+00  0.00000000E+00  0.00000000E+00
  0.00000000E+00  0.00000000E+00  0.00000000E+00
  0.00000000E+00  0.00000000E+00  0.00000000E+00
  0.00000000E+00  0.00000000E+00  0.00000000E+00
  0.00000000E+00  0.00000000E+00  0.00000000E+00
  0.00000000E+00  0.00000000E+00  0.00000000E+00
  0.00000000E+00  0.00000000E+00  0.00000000E+00
  0.00000000E+00  0.00000000E+00  0.00000000E+00
  0.00000000E+00  0.00000000E+00  0.00000000E+00
  0.00000000E+00  0.00000000E+00  0.00000000E+00
  0.00000000E+00  0.00000000E+00  0.00000000E+00
  0.00000000E+00  0.00000000E+00  0.00000000E+00
  0.00000000E+00  0.00000000E+00  0.00000000E+00
  0.00000000E+00  0.00000000E+00  0.00000000E+00
  0.00000000E+00  0.00000000E+00  0.00000000E+00
  0.00000000E+00  0.00000000E+00  0.00000000E+00
  0.00000000E+00  0.00000000E+00  0.00000000E+00
  0.00000000E+00  0.00000000E+00  0.00000000E+00
  0.00000000E+00  0.00000000E+00  0.00000000E+00
  0.00000000E+00  0.00000000E+00  0.00000000E+00
  0.00000000E+00  0.00000000E+00  0.00000000E+00
  0.00000000E+00  0.00000000E+00  0.00000000E+00
  0.00000000E+00  0.00000000E+00  0.00000000E+00
  0.00000000E+00  0.00000000E+00  0.00000000E+00
  0.00000000E+00  0.00000000E+00  0.00000000E+00
  0.00000000E+00  0.00000000E+00  0.00000000E+00
  0.00000000E+00  0.00000000E+00  0.00000000E+00
  0.00000000E+00  0.00000000E+00  0.00000000E+00
  0.00000000E+00  0.00000000E+00  0.00000000E+00
  0.00000000E+00  0.00000000E+00  0.00000000E+00
  0.00000000E+00  0.00000000E+00  0.00000000E+00
  0.00000000E+00  0.00000000E+00  0.00000000E+00
  0.00000000E+00  0.00000000E+00  0.00000000E+00
  0.00000000E+00  0.00000000E+00  0.00000000E+00
  0.00000000E+00  0.00000000E+00  0.00000000E+00
  0.00000000E+00  0.00000000E+00  0.00000000E+00
  0.00000000E+00  0.00000000E+00  0.00000000E+00
  0.00000000E+00  0.00000000E+00  0.00000000E+00
  0.00000000E+00  0.00000000E+00  0.00000000E+00
  0.00000000E+00  0.00000000E+00  0.00000000E+00
  0.00000000E+00  0.00000000E+00  0.00000000E+00
  0.00000000E+00  0.00000000E+00  0.00000000E+00
  0.00000000E+00  0.00000000E+00  0.00000000E+00
  0.00000000E+00  0.00000000E+00  0.00000000E+00
  0.00000000E+00  0.00000000E+00  0.00000000E+00
  0.00000000E+00  0.00000000E+00  0.00000000E+00
  0.00000000E+00  0.00000000E+00  0.00000000E+00
  0.00000000E+00  0.00000000E+00  0.00000000E+00
  0.00000000E+00  0.00000000E+00  0.00000000E+00
  0.00000000E+00  0.00000000E+00  0.00000000E+00
  0.00000000E+00  0.00000000E+00  0.00000000E+00
  0.00000000E+00  0.00000000E+00  0.00000000E+00
  0.00000000E+00  0.00000000E+00  0.00000000E+00
  0.00000000E+00  0.00000000E+00  0.00000000E+00
  0.00000000E+00  0.00000000E+00  0.00000000E+00
  0.00000000E+00  0.00000000E+00  0.00000000E+00
  0.00000000E+00  0.00000000E+00  0.00000000E+00
  0.00000000E+00  0.00000000E+00  0.00000000E+00
  0.00000000E+00  0.00000000E+00  0.00000000E+00
  0.00000000E+00  0.00000000E+00  0.00000000E+00
  0.00000000E+00  0.00000000E+00  0.00000000E+00
  0.00000000E+00  0.00000000E+00  0.00000000E+00
  0.00000000E+00  0.00000000E+00  0.00000000E+00
  0.00000000E+00  0.00000000E+00  0.00000000E+00
  0.00000000E+00  0.00000000E+00  0.00000000E+00
  0.00000000E+00  0.00000000E+00  0.00000000E+00
  0.00000000E+00  0.00000000E+00  0.00000000E+00
  0.00000000E+00  0.00000000E+00  0.00000000E+00
  0.00000000E+00  0.00000000E+00  0.00000000E+00
  0.00000000E+00  0.00000000E+00  0.00000000E+00
  0.00000000E+00  0.00000000E+00  0.00000000E+00
  0.00000000E+00  0.00000000E+00  0.00000000E+00
  0.00000000E+00  0.00000000E+00  0.00000000E+00
  0.00000000E+00  0.00000000E+00  0.00000000E+00
  0.00000000E+00  0.00000000E+00  0.00000000E+00
  0.00000000E+00  0.00000000E+00  0.00000000E+00
  0.00000000E+00  0.00000000E+00  0.00000000E+00
  0.00000000E+00  0.00000000E+00  0.00000000E+00
  0.00000000E+00  0.00000000E+00  0.00000000E+00
  0.00000000E+00  0.00000000E+00  0.00000000E+00
  0.00000000E+00  0.00000000E+00  0.00000000E+00
  0.00000000E+00  0.00000000E+00  0.00000000E+00
  0.00000000E+00  0.00000000E+00  0.00000000E+00
  0.00000000E+00  0.00000000E+00  0.00000000E+00
  0.00000000E+00  0.00000000E+00  0.00000000E+00
  0.00000000E+00  0.00000000E+00  0.00000000E+00
  0.00000000E+00  0.00000000E+00  0.00000000E+00
  0.00000000E+00  0.00000000E+00  0.00000000E+00
  0.00000000E+00  0.00000000E+00  0.00000000E+00
  0.00000000E+00  0.00000000E+00  0.00000000E+00
  0.00000000E+00  0.00000000E+00  0.00000000E+00
  0.00000000E+00  0.00000000E+00  0.00000000E+00
  0.00000000E+00  0.00000000E+00  0.00000000E+00
  0.00000000E+00  0.00000000E+00  0.00000000E+00
  0.00000000E+00  0.00000000E+00  0.00000000E+00
  0.00000000E+00  0.00000000E+00  0.00000000E+00
  0.00000000E+00  0.00000000E+00  0.00000000E+00
  0.00000000E+00  0.00000000E+00  0.00000000E+00
  0.00000000E+00  0.00000000E+00  0.00000000E+00
  0.00000000E+00  0.00000000E+00  0.00000000E+00
  0.00000000E+00  0.00000000E+00  0.00000000E+00
  0.00000000E+00  0.00000000E+00  0.00000000E+00
  0.00000000E+00  0.00000000E+00  0.00000000E+00
  0.00000000E+00  0.00000000E+00  0.00000000E+00
  0.00000000E+00  0.00000000E+00  0.00000000E+00
  0.00000000E+00  0.00000000E+00  0.00000000E+00
  0.00000000E+00  0.00000000E+00  0.00000000E+00
  0.00000000E+00  0.00000000E+00  0.00000000E+00
  0.00000000E+00  0.00000000E+00  0.00000000E+00
  0.00000000E+00  0.00000000E+00  0.00000000E+00
  0.00000000E+00  0.00000000E+00  0.00000000E+00
  0.00000000E+00  0.00000000E+00  0.00000000E+00
  0.00000000E+00  0.00000000E+00  0.00000000E+00
  0.00000000E+00  0.00000000E+00  0.00000000E+00
  0.00000000E+00  0.00000000E+00  0.00000000E+00
  0.00000000E+00  0.00000000E+00  0.00000000E+00
  0.00000000E+00  0.00000000E+00  0.00000000E+00
  0.00000000E+00  0.00000000E+00  0.00000000E+00
  0.00000000E+00  0.00000000E+00  0.00000000E+00
  0.00000000E+00  0.00000000E+00  0.00000000E+00
  0.00000000E+00  0.00000000E+00  0.00000000E+00
  0.00000000E+00  0.00000000E+00  0.00000000E+00
  0.00000000E+00  0.00000000E+00  0.00000000E+00
  0.00000000E+00  0.00000000E+00  0.00000000E+00
  0.00000000E+00  0.00000000E+00  0.00000000E+00
  0.00000000E+00  0.00000000E+00  0.00000000E+00
  0.00000000E+00  0.00000000E+00  0.00000000E+00
  0.00000000E+00  0.00000000E+00  0.00000000E+00
  0.00000000E+00  0.00000000E+00  0.00000000E+00
  0.00000000E+00  0.00000000E+00  0.00000000E+00
  0.00000000E+00  0.00000000E+00  0.00000000E+00
  0.00000000E+00  0.00000000E+00  0.00000000E+00
