Zn96 H16 Pt4 O96                        
    1.000000000000000     
    12.9159908295000001    0.0000000000000000    0.0000000000000000
    -6.4575307008999996   11.1858444632000005    0.0000000000000000
     0.0000000000000000    0.0000000000000000   41.8715667725000031
   Zn   O    H    Pt
    96    96    16     4
Selective dynamics
Direct
  0.0807042092374815  0.1554179304378565  0.4144834418470538   T   T   T
  0.0785140817001491  0.4190931261325446  0.4141400567006812   T   T   T
  0.0816431414257934  0.6701648894974070  0.4132271114023780   T   T   T
  0.0851357518894744  0.9165918792390357  0.4121759253203052   T   T   T
  0.3349587679465245  0.1622410599654032  0.4136509513811220   T   T   T
  0.3306265451971129  0.4240510292123787  0.4145685500001974   T   T   T
  0.3353700562833524  0.6737080925146586  0.4141314769297608   T   T   T
  0.3371727084643510  0.9164895752630358  0.4120032736340349   T   T   T
  0.5871356637124592  0.1657765056267877  0.4121150586741891   T   T   T
  0.5920061417986844  0.4191850821453755  0.4139807168747822   T   T   T
  0.5950355209105638  0.6703565619373322  0.4134694383464392   T   T   T
  0.5854862204051159  0.9157356676593906  0.4115566124518182   T   T   T
  0.8371406671729460  0.1662855377652122  0.4116641743537244   T   T   T
  0.8322709183745474  0.4139636915619533  0.4118950036820834   T   T   T
  0.8321228220127352  0.6657084716267505  0.4117131836502779   T   T   T
  0.8364099762282038  0.9184316609888370  0.4117128758302897   T   T   T
  0.1775192609824146  0.0826716147920550  0.3470241455065874   T   T   T
  0.1363462839747598  0.3079941509206279  0.3585590924092656   T   T   T
  0.1646337013935266  0.5939725146299821  0.3526620468506678   T   T   T
  0.1689110845432964  0.8347302638834577  0.3467715083255456   T   T   T
  0.4258529666438093  0.0801664746192756  0.3471133590016677   T   T   T
  0.4189565623563993  0.3531027387949663  0.3591822872698742   T   T   T
  0.4405098940669134  0.6142686725429272  0.3554861295081295   T   T   T
  0.4205155800833396  0.8338333187428333  0.3439838326622962   T   T   T
  0.6746355929627370  0.0815640227566234  0.3457821865256108   T   T   T
  0.6663379947313430  0.3286118865244134  0.3453888801163032   T   T   T
  0.6639270567308841  0.5773320986398431  0.3433174814556281   T   T   T
  0.6749738390036555  0.8322799238039806  0.3452451692934844   T   T   T
  0.9179125883298695  0.0792897709811555  0.3439451578898982   T   T   T
  0.9170801177752566  0.3352096264443674  0.3452183811918275   T   T   T
  0.9166971126175198  0.5827305847442688  0.3475080035465155   T   T   T
  0.9209524349906104  0.8293060645818144  0.3463496222265476   T   T   T
  0.0833421419999993  0.1666568819999981  0.5388641360000008   F   F   F
  0.0833421419999993  0.4166568819999981  0.5388641360000008   F   F   F
  0.0833421419999993  0.6666568520000027  0.5388641360000008   F   F   F
  0.0833421419999993  0.9166568520000027  0.5388641360000008   F   F   F
  0.3333421350000023  0.1666568819999981  0.5388641360000008   F   F   F
  0.3333421350000023  0.4166568819999981  0.5388641360000008   F   F   F
  0.3333421350000023  0.6666568520000027  0.5388641360000008   F   F   F
  0.3333421350000023  0.9166568520000027  0.5388641360000008   F   F   F
  0.5833421350000023  0.1666568819999981  0.5388641360000008   F   F   F
  0.5833421350000023  0.4166568819999981  0.5388641360000008   F   F   F
  0.5833421350000023  0.6666568520000027  0.5388641360000008   F   F   F
  0.5833421350000023  0.9166568520000027  0.5388641360000008   F   F   F
  0.8333421350000023  0.1666568819999981  0.5388641360000008   F   F   F
  0.8333421350000023  0.4166568819999981  0.5388641360000008   F   F   F
  0.8333421350000023  0.6666568520000027  0.5388641360000008   F   F   F
  0.8333421350000023  0.9166568520000027  0.5388641360000008   F   F   F
  0.1666567770000000  0.0833423509999989  0.4763641059999983   F   F   F
  0.1666567770000000  0.3333423440000018  0.4763641059999983   F   F   F
  0.1666567770000000  0.5833423730000007  0.4763641059999983   F   F   F
  0.1666567770000000  0.8333423730000007  0.4763641059999983   F   F   F
  0.4166567919999977  0.0833423509999989  0.4763641059999983   F   F   F
  0.4166567919999977  0.3333423440000018  0.4763641059999983   F   F   F
  0.4166567919999977  0.5833423730000007  0.4763641059999983   F   F   F
  0.4166567919999977  0.8333423730000007  0.4763641059999983   F   F   F
  0.6666567919999977  0.0833423509999989  0.4763641059999983   F   F   F
  0.6666567919999977  0.3333423440000018  0.4763641059999983   F   F   F
  0.6666567919999977  0.5833423730000007  0.4763641059999983   F   F   F
  0.6666567919999977  0.8333423730000007  0.4763641059999983   F   F   F
  0.9166567919999977  0.0833423509999989  0.4763641059999983   F   F   F
  0.9166567919999977  0.3333423440000018  0.4763641059999983   F   F   F
  0.9166567919999977  0.5833423730000007  0.4763641059999983   F   F   F
  0.9166567919999977  0.8333423730000007  0.4763641059999983   F   F   F
  0.0833420230000002  0.1666567919999977  0.6638641360000008   F   F   F
  0.0833420230000002  0.4166567919999977  0.6638641360000008   F   F   F
  0.0833420230000002  0.6666567919999977  0.6638641360000008   F   F   F
  0.0833420230000002  0.9166567919999977  0.6638641360000008   F   F   F
  0.3333420160000031  0.1666567919999977  0.6638641360000008   F   F   F
  0.3333420160000031  0.4166567919999977  0.6638641360000008   F   F   F
  0.3333420160000031  0.6666567919999977  0.6638641360000008   F   F   F
  0.3333420160000031  0.9166567919999977  0.6638641360000008   F   F   F
  0.5833420160000031  0.1666567919999977  0.6638641360000008   F   F   F
  0.5833420160000031  0.4166567919999977  0.6638641360000008   F   F   F
  0.5833420160000031  0.6666567919999977  0.6638641360000008   F   F   F
  0.5833420160000031  0.9166567919999977  0.6638641360000008   F   F   F
  0.8333420160000031  0.1666567919999977  0.6638641360000008   F   F   F
  0.8333420160000031  0.4166567919999977  0.6638641360000008   F   F   F
  0.8333420160000031  0.6666567919999977  0.6638641360000008   F   F   F
  0.8333420160000031  0.9166567919999977  0.6638641360000008   F   F   F
  0.1666566430000032  0.0833422620000022  0.6013640760000030   F   F   F
  0.1666566430000032  0.3333422540000015  0.6013640760000030   F   F   F
  0.1666566430000032  0.5833422540000015  0.6013640760000030   F   F   F
  0.1666566430000032  0.8333422540000015  0.6013640760000030   F   F   F
  0.4166566430000032  0.0833422620000022  0.6013640760000030   F   F   F
  0.4166566430000032  0.3333422540000015  0.6013640760000030   F   F   F
  0.4166566430000032  0.5833422540000015  0.6013640760000030   F   F   F
  0.4166566430000032  0.8333422540000015  0.6013640760000030   F   F   F
  0.6666566130000007  0.0833422620000022  0.6013640760000030   F   F   F
  0.6666566130000007  0.3333422540000015  0.6013640760000030   F   F   F
  0.6666566130000007  0.5833422540000015  0.6013640760000030   F   F   F
  0.6666566130000007  0.8333422540000015  0.6013640760000030   F   F   F
  0.9166566130000007  0.0833422620000022  0.6013640760000030   F   F   F
  0.9166566130000007  0.3333422540000015  0.6013640760000030   F   F   F
  0.9166566130000007  0.5833422540000015  0.6013640760000030   F   F   F
  0.9166566130000007  0.8333422540000015  0.6013640760000030   F   F   F
  0.0972390318695489  0.1730160779768184  0.3289716897137538   T   T   T
  0.1013422767569878  0.4252111573925106  0.3369713060688326   T   T   T
  0.0820991018267350  0.6685642717181679  0.3367969738643097   T   T   T
  0.0875609275865088  0.9195151759381588  0.3360130085607622   T   T   T
  0.3529108754001626  0.1814405754097379  0.3371616877567334   T   T   T
  0.3184917718021865  0.4327268139195155  0.3499472434340234   T   T   T
  0.3233201329956117  0.6451404925219606  0.3318740083079490   T   T   T
  0.3346593606354560  0.9150502767357978  0.3355210967028697   T   T   T
  0.5894797289282749  0.1631411216651273  0.3353615733759057   T   T   T
  0.5657720057541624  0.4002659820143819  0.3311348291498817   T   T   T
  0.5849956015767361  0.6650119870821030  0.3337889200907114   T   T   T
  0.5877924531925558  0.9130653649910059  0.3361156692158929   T   T   T
  0.8428955276415522  0.1699215959676081  0.3348790026291653   T   T   T
  0.8333398411426387  0.4177324483277900  0.3357839624757446   T   T   T
  0.8312404077677940  0.6625675420742709  0.3365206820069702   T   T   T
  0.8408808162447627  0.9148923343297568  0.3349186941027824   T   T   T
  0.1717042933133825  0.0860311096547974  0.3957174131060839   T   T   T
  0.1604427454902648  0.3279424076762538  0.4034115978399555   T   T   T
  0.1682608677416013  0.5856824305166697  0.3996910045413529   T   T   T
  0.1698806746003427  0.8348283760677546  0.3973762144907766   T   T   T
  0.4192251607115054  0.0839774248709588  0.3968547146870094   T   T   T
  0.4167201149574353  0.3367726241432365  0.4034150059418522   T   T   T
  0.4231395465959125  0.5915417906289164  0.4016704404046578   T   T   T
  0.4183709763065409  0.8320755119895082  0.3948176455056327   T   T   T
  0.6705532449757570  0.0830260305064314  0.3970141678453558   T   T   T
  0.6655886968583715  0.3323981648091987  0.3958395985940300   T   T   T
  0.6649304285292317  0.5787992559692441  0.3949464807398755   T   T   T
  0.6702912369341121  0.8331964125884710  0.3965673798681166   T   T   T
  0.9227534407399460  0.0850716251061243  0.3947452564389806   T   T   T
  0.9189245166743945  0.3338986866820264  0.3955641460295993   T   T   T
  0.9165521541522139  0.5818714270569956  0.3977016294029738   T   T   T
  0.9188864292859833  0.8330147583115846  0.3971853909445144   T   T   T
  0.0833221970000011  0.1666770730000025  0.4611358940000017   F   F   F
  0.0833221970000011  0.4166770579999977  0.4611358940000017   F   F   F
  0.0833221970000011  0.6666770579999977  0.4611358940000017   F   F   F
  0.0833221970000011  0.9166770579999977  0.4611358940000017   F   F   F
  0.3333221970000011  0.1666770730000025  0.4611358940000017   F   F   F
  0.3333221970000011  0.4166770579999977  0.4611358940000017   F   F   F
  0.3333221970000011  0.6666770579999977  0.4611358940000017   F   F   F
  0.3333221970000011  0.9166770579999977  0.4611358940000017   F   F   F
  0.5833221669999986  0.1666770730000025  0.4611358940000017   F   F   F
  0.5833221669999986  0.4166770579999977  0.4611358940000017   F   F   F
  0.5833221669999986  0.6666770579999977  0.4611358940000017   F   F   F
  0.5833221669999986  0.9166770579999977  0.4611358940000017   F   F   F
  0.8333221669999986  0.1666770730000025  0.4611358940000017   F   F   F
  0.8333221669999986  0.4166770579999977  0.4611358940000017   F   F   F
  0.8333221669999986  0.6666770579999977  0.4611358940000017   F   F   F
  0.8333221669999986  0.9166770579999977  0.4611358940000017   F   F   F
  0.1666768790000006  0.0833222870000014  0.5236359239999970   F   F   F
  0.1666768790000006  0.3333222870000014  0.5236359239999970   F   F   F
  0.1666768790000006  0.5833222870000014  0.5236359239999970   F   F   F
  0.1666768790000006  0.8333222870000014  0.5236359239999970   F   F   F
  0.4166768790000006  0.0833222870000014  0.5236359239999970   F   F   F
  0.4166768790000006  0.3333222870000014  0.5236359239999970   F   F   F
  0.4166768790000006  0.5833222870000014  0.5236359239999970   F   F   F
  0.4166768790000006  0.8333222870000014  0.5236359239999970   F   F   F
  0.6666768790000006  0.0833222870000014  0.5236359239999970   F   F   F
  0.6666768790000006  0.3333222870000014  0.5236359239999970   F   F   F
  0.6666768790000006  0.5833222870000014  0.5236359239999970   F   F   F
  0.6666768790000006  0.8333222870000014  0.5236359239999970   F   F   F
  0.9166768790000006  0.0833222870000014  0.5236359239999970   F   F   F
  0.9166768790000006  0.3333222870000014  0.5236359239999970   F   F   F
  0.9166768790000006  0.5833222870000014  0.5236359239999970   F   F   F
  0.9166768790000006  0.8333222870000014  0.5236359239999970   F   F   F
  0.0833220780000019  0.1666769830000021  0.5861359239999970   F   F   F
  0.0833220780000019  0.4166769979999998  0.5861359239999970   F   F   F
  0.0833220780000019  0.6666769979999998  0.5861359239999970   F   F   F
  0.0833220780000019  0.9166769979999998  0.5861359239999970   F   F   F
  0.3333220780000019  0.1666769830000021  0.5861359239999970   F   F   F
  0.3333220780000019  0.4166769979999998  0.5861359239999970   F   F   F
  0.3333220780000019  0.6666769979999998  0.5861359239999970   F   F   F
  0.3333220780000019  0.9166769979999998  0.5861359239999970   F   F   F
  0.5833220479999994  0.1666769830000021  0.5861359239999970   F   F   F
  0.5833220479999994  0.4166769979999998  0.5861359239999970   F   F   F
  0.5833220479999994  0.6666769979999998  0.5861359239999970   F   F   F
  0.5833220479999994  0.9166769979999998  0.5861359239999970   F   F   F
  0.8333220479999994  0.1666769830000021  0.5861359239999970   F   F   F
  0.8333220479999994  0.4166769979999998  0.5861359239999970   F   F   F
  0.8333220479999994  0.6666769979999998  0.5861359239999970   F   F   F
  0.8333220479999994  0.9166769979999998  0.5861359239999970   F   F   F
  0.1666767449999966  0.0833221970000011  0.6486359239999970   F   F   F
  0.1666767449999966  0.3333221970000011  0.6486359239999970   F   F   F
  0.1666767449999966  0.5833221669999986  0.6486359239999970   F   F   F
  0.1666767449999966  0.8333221669999986  0.6486359239999970   F   F   F
  0.4166767600000014  0.0833221970000011  0.6486359239999970   F   F   F
  0.4166767600000014  0.3333221970000011  0.6486359239999970   F   F   F
  0.4166767600000014  0.5833221669999986  0.6486359239999970   F   F   F
  0.4166767600000014  0.8333221669999986  0.6486359239999970   F   F   F
  0.6666767600000014  0.0833221970000011  0.6486359239999970   F   F   F
  0.6666767600000014  0.3333221970000011  0.6486359239999970   F   F   F
  0.6666767600000014  0.5833221669999986  0.6486359239999970   F   F   F
  0.6666767600000014  0.8333221669999986  0.6486359239999970   F   F   F
  0.9166767600000014  0.0833221970000011  0.6486359239999970   F   F   F
  0.9166767600000014  0.3333221970000011  0.6486359239999970   F   F   F
  0.9166767600000014  0.5833221669999986  0.6486359239999970   F   F   F
  0.9166767600000014  0.8333221669999986  0.6486359239999970   F   F   F
  0.0833425000000005  0.1666575069999965  0.7015944119999986   F   F   F
  0.0833425000000005  0.4166575069999965  0.7015944119999986   F   F   F
  0.0833425000000005  0.6666575069999965  0.7015944119999986   F   F   F
  0.0833425000000005  0.9166575069999965  0.7015944119999986   F   F   F
  0.3333424930000035  0.1666575069999965  0.7015944119999986   F   F   F
  0.3333424930000035  0.4166575069999965  0.7015944119999986   F   F   F
  0.3333424930000035  0.6666575069999965  0.7015944119999986   F   F   F
  0.3333424930000035  0.9166575069999965  0.7015944119999986   F   F   F
  0.5833424930000035  0.1666575069999965  0.7015944119999986   F   F   F
  0.5833424930000035  0.4166575069999965  0.7015944119999986   F   F   F
  0.5833424930000035  0.6666575069999965  0.7015944119999986   F   F   F
  0.5833424930000035  0.9166575069999965  0.7015944119999986   F   F   F
  0.8333424930000035  0.1666575069999965  0.7015944119999986   F   F   F
  0.8333424930000035  0.4166575069999965  0.7015944119999986   F   F   F
  0.8333424930000035  0.6666575069999965  0.7015944119999986   F   F   F
  0.8333424930000035  0.9166575069999965  0.7015944119999986   F   F   F
  0.1997976323171713  0.2692383960721045  0.2900497897900181   T   T   T
  0.4073009935298302  0.3111271369961273  0.3024887639535194   T   T   T
  0.2600033425560468  0.4729796375649258  0.3103195580084090   T   T   T
  0.3920995920650512  0.4602017559398845  0.2680830089109705   T   T   T
 
  0.00000000E+00  0.00000000E+00  0.00000000E+00
  0.00000000E+00  0.00000000E+00  0.00000000E+00
  0.00000000E+00  0.00000000E+00  0.00000000E+00
  0.00000000E+00  0.00000000E+00  0.00000000E+00
  0.00000000E+00  0.00000000E+00  0.00000000E+00
  0.00000000E+00  0.00000000E+00  0.00000000E+00
  0.00000000E+00  0.00000000E+00  0.00000000E+00
  0.00000000E+00  0.00000000E+00  0.00000000E+00
  0.00000000E+00  0.00000000E+00  0.00000000E+00
  0.00000000E+00  0.00000000E+00  0.00000000E+00
  0.00000000E+00  0.00000000E+00  0.00000000E+00
  0.00000000E+00  0.00000000E+00  0.00000000E+00
  0.00000000E+00  0.00000000E+00  0.00000000E+00
  0.00000000E+00  0.00000000E+00  0.00000000E+00
  0.00000000E+00  0.00000000E+00  0.00000000E+00
  0.00000000E+00  0.00000000E+00  0.00000000E+00
  0.00000000E+00  0.00000000E+00  0.00000000E+00
  0.00000000E+00  0.00000000E+00  0.00000000E+00
  0.00000000E+00  0.00000000E+00  0.00000000E+00
  0.00000000E+00  0.00000000E+00  0.00000000E+00
  0.00000000E+00  0.00000000E+00  0.00000000E+00
  0.00000000E+00  0.00000000E+00  0.00000000E+00
  0.00000000E+00  0.00000000E+00  0.00000000E+00
  0.00000000E+00  0.00000000E+00  0.00000000E+00
  0.00000000E+00  0.00000000E+00  0.00000000E+00
  0.00000000E+00  0.00000000E+00  0.00000000E+00
  0.00000000E+00  0.00000000E+00  0.00000000E+00
  0.00000000E+00  0.00000000E+00  0.00000000E+00
  0.00000000E+00  0.00000000E+00  0.00000000E+00
  0.00000000E+00  0.00000000E+00  0.00000000E+00
  0.00000000E+00  0.00000000E+00  0.00000000E+00
  0.00000000E+00  0.00000000E+00  0.00000000E+00
  0.00000000E+00  0.00000000E+00  0.00000000E+00
  0.00000000E+00  0.00000000E+00  0.00000000E+00
  0.00000000E+00  0.00000000E+00  0.00000000E+00
  0.00000000E+00  0.00000000E+00  0.00000000E+00
  0.00000000E+00  0.00000000E+00  0.00000000E+00
  0.00000000E+00  0.00000000E+00  0.00000000E+00
  0.00000000E+00  0.00000000E+00  0.00000000E+00
  0.00000000E+00  0.00000000E+00  0.00000000E+00
  0.00000000E+00  0.00000000E+00  0.00000000E+00
  0.00000000E+00  0.00000000E+00  0.00000000E+00
  0.00000000E+00  0.00000000E+00  0.00000000E+00
  0.00000000E+00  0.00000000E+00  0.00000000E+00
  0.00000000E+00  0.00000000E+00  0.00000000E+00
  0.00000000E+00  0.00000000E+00  0.00000000E+00
  0.00000000E+00  0.00000000E+00  0.00000000E+00
  0.00000000E+00  0.00000000E+00  0.00000000E+00
  0.00000000E+00  0.00000000E+00  0.00000000E+00
  0.00000000E+00  0.00000000E+00  0.00000000E+00
  0.00000000E+00  0.00000000E+00  0.00000000E+00
  0.00000000E+00  0.00000000E+00  0.00000000E+00
  0.00000000E+00  0.00000000E+00  0.00000000E+00
  0.00000000E+00  0.00000000E+00  0.00000000E+00
  0.00000000E+00  0.00000000E+00  0.00000000E+00
  0.00000000E+00  0.00000000E+00  0.00000000E+00
  0.00000000E+00  0.00000000E+00  0.00000000E+00
  0.00000000E+00  0.00000000E+00  0.00000000E+00
  0.00000000E+00  0.00000000E+00  0.00000000E+00
  0.00000000E+00  0.00000000E+00  0.00000000E+00
  0.00000000E+00  0.00000000E+00  0.00000000E+00
  0.00000000E+00  0.00000000E+00  0.00000000E+00
  0.00000000E+00  0.00000000E+00  0.00000000E+00
  0.00000000E+00  0.00000000E+00  0.00000000E+00
  0.00000000E+00  0.00000000E+00  0.00000000E+00
  0.00000000E+00  0.00000000E+00  0.00000000E+00
  0.00000000E+00  0.00000000E+00  0.00000000E+00
  0.00000000E+00  0.00000000E+00  0.00000000E+00
  0.00000000E+00  0.00000000E+00  0.00000000E+00
  0.00000000E+00  0.00000000E+00  0.00000000E+00
  0.00000000E+00  0.00000000E+00  0.00000000E+00
  0.00000000E+00  0.00000000E+00  0.00000000E+00
  0.00000000E+00  0.00000000E+00  0.00000000E+00
  0.00000000E+00  0.00000000E+00  0.00000000E+00
  0.00000000E+00  0.00000000E+00  0.00000000E+00
  0.00000000E+00  0.00000000E+00  0.00000000E+00
  0.00000000E+00  0.00000000E+00  0.00000000E+00
  0.00000000E+00  0.00000000E+00  0.00000000E+00
  0.00000000E+00  0.00000000E+00  0.00000000E+00
  0.00000000E+00  0.00000000E+00  0.00000000E+00
  0.00000000E+00  0.00000000E+00  0.00000000E+00
  0.00000000E+00  0.00000000E+00  0.00000000E+00
  0.00000000E+00  0.00000000E+00  0.00000000E+00
  0.00000000E+00  0.00000000E+00  0.00000000E+00
  0.00000000E+00  0.00000000E+00  0.00000000E+00
  0.00000000E+00  0.00000000E+00  0.00000000E+00
  0.00000000E+00  0.00000000E+00  0.00000000E+00
  0.00000000E+00  0.00000000E+00  0.00000000E+00
  0.00000000E+00  0.00000000E+00  0.00000000E+00
  0.00000000E+00  0.00000000E+00  0.00000000E+00
  0.00000000E+00  0.00000000E+00  0.00000000E+00
  0.00000000E+00  0.00000000E+00  0.00000000E+00
  0.00000000E+00  0.00000000E+00  0.00000000E+00
  0.00000000E+00  0.00000000E+00  0.00000000E+00
  0.00000000E+00  0.00000000E+00  0.00000000E+00
  0.00000000E+00  0.00000000E+00  0.00000000E+00
  0.00000000E+00  0.00000000E+00  0.00000000E+00
  0.00000000E+00  0.00000000E+00  0.00000000E+00
  0.00000000E+00  0.00000000E+00  0.00000000E+00
  0.00000000E+00  0.00000000E+00  0.00000000E+00
  0.00000000E+00  0.00000000E+00  0.00000000E+00
  0.00000000E+00  0.00000000E+00  0.00000000E+00
  0.00000000E+00  0.00000000E+00  0.00000000E+00
  0.00000000E+00  0.00000000E+00  0.00000000E+00
  0.00000000E+00  0.00000000E+00  0.00000000E+00
  0.00000000E+00  0.00000000E+00  0.00000000E+00
  0.00000000E+00  0.00000000E+00  0.00000000E+00
  0.00000000E+00  0.00000000E+00  0.00000000E+00
  0.00000000E+00  0.00000000E+00  0.00000000E+00
  0.00000000E+00  0.00000000E+00  0.00000000E+00
  0.00000000E+00  0.00000000E+00  0.00000000E+00
  0.00000000E+00  0.00000000E+00  0.00000000E+00
  0.00000000E+00  0.00000000E+00  0.00000000E+00
  0.00000000E+00  0.00000000E+00  0.00000000E+00
  0.00000000E+00  0.00000000E+00  0.00000000E+00
  0.00000000E+00  0.00000000E+00  0.00000000E+00
  0.00000000E+00  0.00000000E+00  0.00000000E+00
  0.00000000E+00  0.00000000E+00  0.00000000E+00
  0.00000000E+00  0.00000000E+00  0.00000000E+00
  0.00000000E+00  0.00000000E+00  0.00000000E+00
  0.00000000E+00  0.00000000E+00  0.00000000E+00
  0.00000000E+00  0.00000000E+00  0.00000000E+00
  0.00000000E+00  0.00000000E+00  0.00000000E+00
  0.00000000E+00  0.00000000E+00  0.00000000E+00
  0.00000000E+00  0.00000000E+00  0.00000000E+00
  0.00000000E+00  0.00000000E+00  0.00000000E+00
  0.00000000E+00  0.00000000E+00  0.00000000E+00
  0.00000000E+00  0.00000000E+00  0.00000000E+00
  0.00000000E+00  0.00000000E+00  0.00000000E+00
  0.00000000E+00  0.00000000E+00  0.00000000E+00
  0.00000000E+00  0.00000000E+00  0.00000000E+00
  0.00000000E+00  0.00000000E+00  0.00000000E+00
  0.00000000E+00  0.00000000E+00  0.00000000E+00
  0.00000000E+00  0.00000000E+00  0.00000000E+00
  0.00000000E+00  0.00000000E+00  0.00000000E+00
  0.00000000E+00  0.00000000E+00  0.00000000E+00
  0.00000000E+00  0.00000000E+00  0.00000000E+00
  0.00000000E+00  0.00000000E+00  0.00000000E+00
  0.00000000E+00  0.00000000E+00  0.00000000E+00
  0.00000000E+00  0.00000000E+00  0.00000000E+00
  0.00000000E+00  0.00000000E+00  0.00000000E+00
  0.00000000E+00  0.00000000E+00  0.00000000E+00
  0.00000000E+00  0.00000000E+00  0.00000000E+00
  0.00000000E+00  0.00000000E+00  0.00000000E+00
  0.00000000E+00  0.00000000E+00  0.00000000E+00
  0.00000000E+00  0.00000000E+00  0.00000000E+00
  0.00000000E+00  0.00000000E+00  0.00000000E+00
  0.00000000E+00  0.00000000E+00  0.00000000E+00
  0.00000000E+00  0.00000000E+00  0.00000000E+00
  0.00000000E+00  0.00000000E+00  0.00000000E+00
  0.00000000E+00  0.00000000E+00  0.00000000E+00
  0.00000000E+00  0.00000000E+00  0.00000000E+00
  0.00000000E+00  0.00000000E+00  0.00000000E+00
  0.00000000E+00  0.00000000E+00  0.00000000E+00
  0.00000000E+00  0.00000000E+00  0.00000000E+00
  0.00000000E+00  0.00000000E+00  0.00000000E+00
  0.00000000E+00  0.00000000E+00  0.00000000E+00
  0.00000000E+00  0.00000000E+00  0.00000000E+00
  0.00000000E+00  0.00000000E+00  0.00000000E+00
  0.00000000E+00  0.00000000E+00  0.00000000E+00
  0.00000000E+00  0.00000000E+00  0.00000000E+00
  0.00000000E+00  0.00000000E+00  0.00000000E+00
  0.00000000E+00  0.00000000E+00  0.00000000E+00
  0.00000000E+00  0.00000000E+00  0.00000000E+00
  0.00000000E+00  0.00000000E+00  0.00000000E+00
  0.00000000E+00  0.00000000E+00  0.00000000E+00
  0.00000000E+00  0.00000000E+00  0.00000000E+00
  0.00000000E+00  0.00000000E+00  0.00000000E+00
  0.00000000E+00  0.00000000E+00  0.00000000E+00
  0.00000000E+00  0.00000000E+00  0.00000000E+00
  0.00000000E+00  0.00000000E+00  0.00000000E+00
  0.00000000E+00  0.00000000E+00  0.00000000E+00
  0.00000000E+00  0.00000000E+00  0.00000000E+00
  0.00000000E+00  0.00000000E+00  0.00000000E+00
  0.00000000E+00  0.00000000E+00  0.00000000E+00
  0.00000000E+00  0.00000000E+00  0.00000000E+00
  0.00000000E+00  0.00000000E+00  0.00000000E+00
  0.00000000E+00  0.00000000E+00  0.00000000E+00
  0.00000000E+00  0.00000000E+00  0.00000000E+00
  0.00000000E+00  0.00000000E+00  0.00000000E+00
  0.00000000E+00  0.00000000E+00  0.00000000E+00
  0.00000000E+00  0.00000000E+00  0.00000000E+00
  0.00000000E+00  0.00000000E+00  0.00000000E+00
  0.00000000E+00  0.00000000E+00  0.00000000E+00
  0.00000000E+00  0.00000000E+00  0.00000000E+00
  0.00000000E+00  0.00000000E+00  0.00000000E+00
  0.00000000E+00  0.00000000E+00  0.00000000E+00
  0.00000000E+00  0.00000000E+00  0.00000000E+00
  0.00000000E+00  0.00000000E+00  0.00000000E+00
  0.00000000E+00  0.00000000E+00  0.00000000E+00
  0.00000000E+00  0.00000000E+00  0.00000000E+00
  0.00000000E+00  0.00000000E+00  0.00000000E+00
  0.00000000E+00  0.00000000E+00  0.00000000E+00
  0.00000000E+00  0.00000000E+00  0.00000000E+00
  0.00000000E+00  0.00000000E+00  0.00000000E+00
  0.00000000E+00  0.00000000E+00  0.00000000E+00
  0.00000000E+00  0.00000000E+00  0.00000000E+00
  0.00000000E+00  0.00000000E+00  0.00000000E+00
  0.00000000E+00  0.00000000E+00  0.00000000E+00
  0.00000000E+00  0.00000000E+00  0.00000000E+00
  0.00000000E+00  0.00000000E+00  0.00000000E+00
  0.00000000E+00  0.00000000E+00  0.00000000E+00
  0.00000000E+00  0.00000000E+00  0.00000000E+00
  0.00000000E+00  0.00000000E+00  0.00000000E+00
  0.00000000E+00  0.00000000E+00  0.00000000E+00
  0.00000000E+00  0.00000000E+00  0.00000000E+00
  0.00000000E+00  0.00000000E+00  0.00000000E+00
  0.00000000E+00  0.00000000E+00  0.00000000E+00
  0.00000000E+00  0.00000000E+00  0.00000000E+00
  0.00000000E+00  0.00000000E+00  0.00000000E+00
  0.00000000E+00  0.00000000E+00  0.00000000E+00
  0.00000000E+00  0.00000000E+00  0.00000000E+00
