Zn96 H16 Pt4 O96
1.0
  12.9159908295000001    0.0000000000000000    0.0000000000000000
  -6.4575307008999996   11.1858444632000005    0.0000000000000000
   0.0000000000000000    0.0000000000000000   41.8715667725000031
Zn O H Pt
96 96 16 4
Selective dynamics
Direct
0.0833140910000000 0.1666849850000000 0.4124850030000000 T T T
0.0833140910000000 0.4166849850000000 0.4124850030000000 T T T
0.0833140910000000 0.6666849850000000 0.4124850030000000 T T T
0.0833140910000000 0.9166849850000000 0.4124850030000000 T T T
0.3333140910000000 0.1666849850000000 0.4124850030000000 T T T
0.3333140910000000 0.4166849850000000 0.4124850030000000 T T T
0.3333140910000000 0.6666849850000000 0.4124850030000000 T T T
0.3333140910000000 0.9166849850000000 0.4124850030000000 T T T
0.5833140610000001 0.1666849850000000 0.4124850030000000 T T T
0.5833140610000001 0.4166849850000000 0.4124850030000000 T T T
0.5833140610000001 0.6666849850000000 0.4124850030000000 T T T
0.5833140610000001 0.9166849850000000 0.4124850030000000 T T T
0.8333140610000001 0.1666849850000000 0.4124850030000000 T T T
0.8333140610000001 0.4166849850000000 0.4124850030000000 T T T
0.8333140610000001 0.6666849850000000 0.4124850030000000 T T T
0.8333140610000001 0.9166849850000000 0.4124850030000000 T T T
0.1666792630000000 0.0833189490000000 0.3472988610000000 T T T
0.1666792630000000 0.3333189490000000 0.3472988610000000 T T T
0.1666792630000000 0.5833189490000000 0.3472988610000000 T T T
0.1666792630000000 0.8333189490000000 0.3472988610000000 T T T
0.4166792630000000 0.0833189490000000 0.3472988610000000 T T T
0.4166792630000000 0.3333189490000000 0.3472988610000000 T T T
0.4166792630000000 0.5833189490000000 0.3472988610000000 T T T
0.4166792630000000 0.8333189490000000 0.3472988610000000 T T T
0.6666792630000000 0.0833189490000000 0.3472988610000000 T T T
0.6666792630000000 0.3333189490000000 0.3472988610000000 T T T
0.6666792630000000 0.5833189490000000 0.3472988610000000 T T T
0.6666792630000000 0.8333189490000000 0.3472988610000000 T T T
0.9166792630000000 0.0833189490000000 0.3472988610000000 T T T
0.9166792630000000 0.3333189490000000 0.3472988610000000 T T T
0.9166792630000000 0.5833189490000000 0.3472988610000000 T T T
0.9166792630000000 0.8333189490000000 0.3472988610000000 T T T
0.0833421420000000 0.1666568820000000 0.5388641360000000 F F F
0.0833421420000000 0.4166568820000000 0.5388641360000000 F F F
0.0833421420000000 0.6666568520000000 0.5388641360000000 F F F
0.0833421420000000 0.9166568520000000 0.5388641360000000 F F F
0.3333421350000000 0.1666568820000000 0.5388641360000000 F F F
0.3333421350000000 0.4166568820000000 0.5388641360000000 F F F
0.3333421350000000 0.6666568520000000 0.5388641360000000 F F F
0.3333421350000000 0.9166568520000000 0.5388641360000000 F F F
0.5833421350000000 0.1666568820000000 0.5388641360000000 F F F
0.5833421350000000 0.4166568820000000 0.5388641360000000 F F F
0.5833421350000000 0.6666568520000000 0.5388641360000000 F F F
0.5833421350000000 0.9166568520000000 0.5388641360000000 F F F
0.8333421350000000 0.1666568820000000 0.5388641360000000 F F F
0.8333421350000000 0.4166568820000000 0.5388641360000000 F F F
0.8333421350000000 0.6666568520000000 0.5388641360000000 F F F
0.8333421350000000 0.9166568520000000 0.5388641360000000 F F F
0.1666567770000000 0.0833423510000000 0.4763641060000000 F F F
0.1666567770000000 0.3333423440000000 0.4763641060000000 F F F
0.1666567770000000 0.5833423730000000 0.4763641060000000 F F F
0.1666567770000000 0.8333423730000000 0.4763641060000000 F F F
0.4166567920000000 0.0833423510000000 0.4763641060000000 F F F
0.4166567920000000 0.3333423440000000 0.4763641060000000 F F F
0.4166567920000000 0.5833423730000000 0.4763641060000000 F F F
0.4166567920000000 0.8333423730000000 0.4763641060000000 F F F
0.6666567920000001 0.0833423510000000 0.4763641060000000 F F F
0.6666567920000001 0.3333423440000000 0.4763641060000000 F F F
0.6666567920000001 0.5833423730000000 0.4763641060000000 F F F
0.6666567920000001 0.8333423730000000 0.4763641060000000 F F F
0.9166567920000001 0.0833423510000000 0.4763641060000000 F F F
0.9166567920000001 0.3333423440000000 0.4763641060000000 F F F
0.9166567920000001 0.5833423730000000 0.4763641060000000 F F F
0.9166567920000001 0.8333423730000000 0.4763641060000000 F F F
0.0833420230000000 0.1666567920000000 0.6638641360000000 F F F
0.0833420230000000 0.4166567920000000 0.6638641360000000 F F F
0.0833420230000000 0.6666567920000001 0.6638641360000000 F F F
0.0833420230000000 0.9166567920000001 0.6638641360000000 F F F
0.3333420160000000 0.1666567920000000 0.6638641360000000 F F F
0.3333420160000000 0.4166567920000000 0.6638641360000000 F F F
0.3333420160000000 0.6666567920000001 0.6638641360000000 F F F
0.3333420160000000 0.9166567920000001 0.6638641360000000 F F F
0.5833420160000000 0.1666567920000000 0.6638641360000000 F F F
0.5833420160000000 0.4166567920000000 0.6638641360000000 F F F
0.5833420160000000 0.6666567920000001 0.6638641360000000 F F F
0.5833420160000000 0.9166567920000001 0.6638641360000000 F F F
0.8333420160000000 0.1666567920000000 0.6638641360000000 F F F
0.8333420160000000 0.4166567920000000 0.6638641360000000 F F F
0.8333420160000000 0.6666567920000001 0.6638641360000000 F F F
0.8333420160000000 0.9166567920000001 0.6638641360000000 F F F
0.1666566430000000 0.0833422620000000 0.6013640760000000 F F F
0.1666566430000000 0.3333422540000000 0.6013640760000000 F F F
0.1666566430000000 0.5833422539999999 0.6013640760000000 F F F
0.1666566430000000 0.8333422539999999 0.6013640760000000 F F F
0.4166566430000000 0.0833422620000000 0.6013640760000000 F F F
0.4166566430000000 0.3333422540000000 0.6013640760000000 F F F
0.4166566430000000 0.5833422539999999 0.6013640760000000 F F F
0.4166566430000000 0.8333422539999999 0.6013640760000000 F F F
0.6666566130000000 0.0833422620000000 0.6013640760000000 F F F
0.6666566130000000 0.3333422540000000 0.6013640760000000 F F F
0.6666566130000000 0.5833422539999999 0.6013640760000000 F F F
0.6666566130000000 0.8333422539999999 0.6013640760000000 F F F
0.9166566130000000 0.0833422620000000 0.6013640760000000 F F F
0.9166566130000000 0.3333422540000000 0.6013640760000000 F F F
0.9166566130000000 0.5833422539999999 0.6013640760000000 F F F
0.9166566130000000 0.8333422539999999 0.6013640760000000 F F F
0.0833286200000000 0.1666705910000000 0.3382428290000000 T T T
0.0833286200000000 0.4166705910000000 0.3382428290000000 T T T
0.0833286200000000 0.6666705610000000 0.3382428290000000 T T T
0.0833286200000000 0.9166705610000000 0.3382428290000000 T T T
0.3333286050000000 0.1666705910000000 0.3382428290000000 T T T
0.3333286050000000 0.4166705910000000 0.3382428290000000 T T T
0.3333286050000000 0.6666705610000000 0.3382428290000000 T T T
0.3333286050000000 0.9166705610000000 0.3382428290000000 T T T
0.5833286049999999 0.1666705910000000 0.3382428290000000 T T T
0.5833286049999999 0.4166705910000000 0.3382428290000000 T T T
0.5833286049999999 0.6666705610000000 0.3382428290000000 T T T
0.5833286049999999 0.9166705610000000 0.3382428290000000 T T T
0.8333286049999999 0.1666705910000000 0.3382428290000000 T T T
0.8333286049999999 0.4166705910000000 0.3382428290000000 T T T
0.8333286049999999 0.6666705610000000 0.3382428290000000 T T T
0.8333286049999999 0.9166705610000000 0.3382428290000000 T T T
0.1666540210000000 0.0833451520000000 0.3980444370000000 T T T
0.1666540210000000 0.3333451450000000 0.3980444370000000 T T T
0.1666540210000000 0.5833451750000000 0.3980444370000000 T T T
0.1666540210000000 0.8333451750000000 0.3980444370000000 T T T
0.4166540210000000 0.0833451520000000 0.3980444370000000 T T T
0.4166540210000000 0.3333451450000000 0.3980444370000000 T T T
0.4166540210000000 0.5833451750000000 0.3980444370000000 T T T
0.4166540210000000 0.8333451750000000 0.3980444370000000 T T T
0.6666539910000000 0.0833451520000000 0.3980444370000000 T T T
0.6666539910000000 0.3333451450000000 0.3980444370000000 T T T
0.6666539910000000 0.5833451750000000 0.3980444370000000 T T T
0.6666539910000000 0.8333451750000000 0.3980444370000000 T T T
0.9166539910000000 0.0833451520000000 0.3980444370000000 T T T
0.9166539910000000 0.3333451450000000 0.3980444370000000 T T T
0.9166539910000000 0.5833451750000000 0.3980444370000000 T T T
0.9166539910000000 0.8333451750000000 0.3980444370000000 T T T
0.0833221970000000 0.1666770730000000 0.4611358940000000 F F F
0.0833221970000000 0.4166770580000000 0.4611358940000000 F F F
0.0833221970000000 0.6666770580000000 0.4611358940000000 F F F
0.0833221970000000 0.9166770580000000 0.4611358940000000 F F F
0.3333221970000000 0.1666770730000000 0.4611358940000000 F F F
0.3333221970000000 0.4166770580000000 0.4611358940000000 F F F
0.3333221970000000 0.6666770580000000 0.4611358940000000 F F F
0.3333221970000000 0.9166770580000000 0.4611358940000000 F F F
0.5833221669999999 0.1666770730000000 0.4611358940000000 F F F
0.5833221669999999 0.4166770580000000 0.4611358940000000 F F F
0.5833221669999999 0.6666770580000000 0.4611358940000000 F F F
0.5833221669999999 0.9166770580000000 0.4611358940000000 F F F
0.8333221669999999 0.1666770730000000 0.4611358940000000 F F F
0.8333221669999999 0.4166770580000000 0.4611358940000000 F F F
0.8333221669999999 0.6666770580000000 0.4611358940000000 F F F
0.8333221669999999 0.9166770580000000 0.4611358940000000 F F F
0.1666768790000000 0.0833222870000000 0.5236359240000000 F F F
0.1666768790000000 0.3333222870000000 0.5236359240000000 F F F
0.1666768790000000 0.5833222870000000 0.5236359240000000 F F F
0.1666768790000000 0.8333222870000000 0.5236359240000000 F F F
0.4166768790000000 0.0833222870000000 0.5236359240000000 F F F
0.4166768790000000 0.3333222870000000 0.5236359240000000 F F F
0.4166768790000000 0.5833222870000000 0.5236359240000000 F F F
0.4166768790000000 0.8333222870000000 0.5236359240000000 F F F
0.6666768789999999 0.0833222870000000 0.5236359240000000 F F F
0.6666768789999999 0.3333222870000000 0.5236359240000000 F F F
0.6666768789999999 0.5833222870000000 0.5236359240000000 F F F
0.6666768789999999 0.8333222870000000 0.5236359240000000 F F F
0.9166768789999999 0.0833222870000000 0.5236359240000000 F F F
0.9166768789999999 0.3333222870000000 0.5236359240000000 F F F
0.9166768789999999 0.5833222870000000 0.5236359240000000 F F F
0.9166768789999999 0.8333222870000000 0.5236359240000000 F F F
0.0833220780000000 0.1666769830000000 0.5861359240000000 F F F
0.0833220780000000 0.4166769980000000 0.5861359240000000 F F F
0.0833220780000000 0.6666769980000000 0.5861359240000000 F F F
0.0833220780000000 0.9166769980000000 0.5861359240000000 F F F
0.3333220780000000 0.1666769830000000 0.5861359240000000 F F F
0.3333220780000000 0.4166769980000000 0.5861359240000000 F F F
0.3333220780000000 0.6666769980000000 0.5861359240000000 F F F
0.3333220780000000 0.9166769980000000 0.5861359240000000 F F F
0.5833220480000000 0.1666769830000000 0.5861359240000000 F F F
0.5833220480000000 0.4166769980000000 0.5861359240000000 F F F
0.5833220480000000 0.6666769980000000 0.5861359240000000 F F F
0.5833220480000000 0.9166769980000000 0.5861359240000000 F F F
0.8333220480000000 0.1666769830000000 0.5861359240000000 F F F
0.8333220480000000 0.4166769980000000 0.5861359240000000 F F F
0.8333220480000000 0.6666769980000000 0.5861359240000000 F F F
0.8333220480000000 0.9166769980000000 0.5861359240000000 F F F
0.1666767450000000 0.0833221970000000 0.6486359240000000 F F F
0.1666767450000000 0.3333221970000000 0.6486359240000000 F F F
0.1666767450000000 0.5833221669999999 0.6486359240000000 F F F
0.1666767450000000 0.8333221669999999 0.6486359240000000 F F F
0.4166767600000000 0.0833221970000000 0.6486359240000000 F F F
0.4166767600000000 0.3333221970000000 0.6486359240000000 F F F
0.4166767600000000 0.5833221669999999 0.6486359240000000 F F F
0.4166767600000000 0.8333221669999999 0.6486359240000000 F F F
0.6666767600000000 0.0833221970000000 0.6486359240000000 F F F
0.6666767600000000 0.3333221970000000 0.6486359240000000 F F F
0.6666767600000000 0.5833221669999999 0.6486359240000000 F F F
0.6666767600000000 0.8333221669999999 0.6486359240000000 F F F
0.9166767600000000 0.0833221970000000 0.6486359240000000 F F F
0.9166767600000000 0.3333221970000000 0.6486359240000000 F F F
0.9166767600000000 0.5833221669999999 0.6486359240000000 F F F
0.9166767600000000 0.8333221669999999 0.6486359240000000 F F F
0.0833425000000000 0.1666575070000000 0.7015944119999999 F F F
0.0833425000000000 0.4166575070000000 0.7015944119999999 F F F
0.0833425000000000 0.6666575070000000 0.7015944119999999 F F F
0.0833425000000000 0.9166575070000000 0.7015944119999999 F F F
0.3333424930000000 0.1666575070000000 0.7015944119999999 F F F
0.3333424930000000 0.4166575070000000 0.7015944119999999 F F F
0.3333424930000000 0.6666575070000000 0.7015944119999999 F F F
0.3333424930000000 0.9166575070000000 0.7015944119999999 F F F
0.5833424930000000 0.1666575070000000 0.7015944119999999 F F F
0.5833424930000000 0.4166575070000000 0.7015944119999999 F F F
0.5833424930000000 0.6666575070000000 0.7015944119999999 F F F
0.5833424930000000 0.9166575070000000 0.7015944119999999 F F F
0.8333424930000000 0.1666575070000000 0.7015944119999999 F F F
0.8333424930000000 0.4166575070000000 0.7015944119999999 F F F
0.8333424930000000 0.6666575070000000 0.7015944119999999 F F F
0.8333424930000000 0.9166575070000000 0.7015944119999999 F F F
0.2781834974737117 0.2831290615952287 0.2499910022473713 T T T
0.4720775452460091 0.2826418386575300 0.2500167237591994 T T T
0.2779899656319117 0.4773925351442214 0.2499971161814734 T T T
0.4717489916483676 0.4768365646030200 0.2499951578119562 T T T
