Zn96 H16 O96                            
    1.000000000000000     
    12.9159907272337371    0.0000000000000000    0.0000000000000008
    -6.4575301003323453   11.1858448318051593    0.0000000000000008
     0.0000000000000000    0.0000000000000000   41.8715658066988325
   Zn   O    H    O    H 
    96    96    16     1     1
Selective dynamics
Direct
  0.0833422700331283  0.1666569644086167  0.4138641089449635   F   F   F
  0.0833422700331283  0.4166569644086238  0.4138641089449635   F   F   F
  0.0833422700331283  0.6666569644086167  0.4138641089449635   F   F   F
  0.0833422700331283  0.9166569644086167  0.4138641089449635   F   F   F
  0.3333422700331283  0.1666569644086167  0.4138641089449635   F   F   F
  0.3333422700331283  0.4166569644086238  0.4138641089449635   F   F   F
  0.3333422700331283  0.6666569644086167  0.4138641089449635   F   F   F
  0.3333422700331283  0.9166569644086167  0.4138641089449635   F   F   F
  0.5833422700331283  0.1666569644086167  0.4138641089449635   F   F   F
  0.5833422700331283  0.4166569644086238  0.4138641089449635   F   F   F
  0.5833422700331283  0.6666569644086167  0.4138641089449635   F   F   F
  0.5833422700331283  0.9166569644086167  0.4138641089449635   F   F   F
  0.8333422700331283  0.1666569644086167  0.4138641089449635   F   F   F
  0.8333422700331283  0.4166569644086238  0.4138641089449635   F   F   F
  0.8333422700331283  0.6666569644086167  0.4138641089449635   F   F   F
  0.8333422700331283  0.9166569644086167  0.4138641089449635   F   F   F
  0.1666568958537624  0.0833424376166505  0.3513640990662594   F   F   F
  0.1666568958537624  0.3333424376166505  0.3513640990662594   F   F   F
  0.1666568958537624  0.5833424376166505  0.3513640990662594   F   F   F
  0.1666568958537624  0.8333424376166505  0.3513640990662594   F   F   F
  0.4166568958537624  0.0833424376166505  0.3513640990662594   F   F   F
  0.4166568958537624  0.3333424376166505  0.3513640990662594   F   F   F
  0.4166568958537624  0.5833424376166505  0.3513640990662594   F   F   F
  0.4166568958537624  0.8333424376166505  0.3513640990662594   F   F   F
  0.6666568958537624  0.0833424376166505  0.3513640990662594   F   F   F
  0.6666568958537624  0.3333424376166505  0.3513640990662594   F   F   F
  0.6666568958537624  0.5833424376166505  0.3513640990662594   F   F   F
  0.6666568958537624  0.8333424376166505  0.3513640990662594   F   F   F
  0.9166568958537624  0.0833424376166505  0.3513640990662594   F   F   F
  0.9166568958537624  0.3333424376166505  0.3513640990662594   F   F   F
  0.9166568958537624  0.5833424376166505  0.3513640990662594   F   F   F
  0.9166568958537624  0.8333424376166505  0.3513640990662594   F   F   F
  0.0833421456183316  0.1666568756581057  0.5388641089449635   F   F   F
  0.0833421456183316  0.4166568756581057  0.5388641089449635   F   F   F
  0.0833421456183316  0.6666568756581057  0.5388641089449635   F   F   F
  0.0833421456183316  0.9166568756581057  0.5388641089449635   F   F   F
  0.3333421456183316  0.1666568756581057  0.5388641089449635   F   F   F
  0.3333421456183316  0.4166568756581057  0.5388641089449635   F   F   F
  0.3333421456183316  0.6666568756581057  0.5388641089449635   F   F   F
  0.3333421456183316  0.9166568756581057  0.5388641089449635   F   F   F
  0.5833421456183316  0.1666568756581057  0.5388641089449635   F   F   F
  0.5833421456183316  0.4166568756581057  0.5388641089449635   F   F   F
  0.5833421456183316  0.6666568756581057  0.5388641089449635   F   F   F
  0.5833421456183316  0.9166568756581057  0.5388641089449635   F   F   F
  0.8333421456183316  0.1666568756581057  0.5388641089449635   F   F   F
  0.8333421456183316  0.4166568756581057  0.5388641089449635   F   F   F
  0.8333421456183316  0.6666568756581057  0.5388641089449635   F   F   F
  0.8333421456183316  0.9166568756581057  0.5388641089449635   F   F   F
  0.1666567714389657  0.0833423488661396  0.4763640990662594   F   F   F
  0.1666567714389657  0.3333423488661396  0.4763640990662594   F   F   F
  0.1666567714389657  0.5833423488661396  0.4763640990662594   F   F   F
  0.1666567714389657  0.8333423488661396  0.4763640990662594   F   F   F
  0.4166567714389657  0.0833423488661396  0.4763640990662594   F   F   F
  0.4166567714389657  0.3333423488661396  0.4763640990662594   F   F   F
  0.4166567714389657  0.5833423488661396  0.4763640990662594   F   F   F
  0.4166567714389657  0.8333423488661396  0.4763640990662594   F   F   F
  0.6666567714389657  0.0833423488661396  0.4763640990662594   F   F   F
  0.6666567714389657  0.3333423488661396  0.4763640990662594   F   F   F
  0.6666567714389657  0.5833423488661396  0.4763640990662594   F   F   F
  0.6666567714389657  0.8333423488661396  0.4763640990662594   F   F   F
  0.9166567714389657  0.0833423488661396  0.4763640990662594   F   F   F
  0.9166567714389657  0.3333423488661396  0.4763640990662594   F   F   F
  0.9166567714389657  0.5833423488661396  0.4763640990662594   F   F   F
  0.9166567714389657  0.8333423488661396  0.4763640990662594   F   F   F
  0.0999496058385256  0.1777469551304882  0.6705902164570376   T   T   T
  0.0768724310414806  0.4234178128134720  0.6678045218049377   T   T   T
  0.0758448910546266  0.6573348599248587  0.6681014263706563   T   T   T
  0.0823007109017887  0.9098599968487053  0.6608307270027139   T   T   T
  0.3266664040800210  0.1719924090080499  0.6668818159039246   T   T   T
  0.3222612663694395  0.4001287454511623  0.6701982469366125   T   T   T
  0.3342709983061348  0.6631937060215486  0.6576428408602575   T   T   T
  0.3448141739189672  0.9217213243544928  0.6679911945599520   T   T   T
  0.5781208228779146  0.1556107479276551  0.6674272693515443   T   T   T
  0.5895656772111568  0.4172469667665114  0.6612539621918927   T   T   T
  0.5841300467320636  0.6687024508043630  0.6620762427395612   T   T   T
  0.5748654180916699  0.9246157040846801  0.6722870320176958   T   T   T
  0.8373613399239034  0.1663751695918597  0.6577774917960817   T   T   T
  0.8428339515937876  0.4253246243302004  0.6682475280344929   T   T   T
  0.8332901701802627  0.6652877875860490  0.6723175442858564   T   T   T
  0.8314581842949337  0.9161561530032092  0.6619910664321348   T   T   T
  0.1664309367256796  0.0833469550026060  0.6021091355717875   T   T   T
  0.1651784537477562  0.3346723553206237  0.6039455671736035   T   T   T
  0.1647297962988620  0.5829422655585168  0.6011513037751207   T   T   T
  0.1681717850977254  0.8313706001658415  0.6042557736745046   T   T   T
  0.4154375277794523  0.0843093654586376  0.6035168929942947   T   T   T
  0.4164785454883254  0.3331466552118019  0.6022047265758395   T   T   T
  0.4158627244580060  0.5784853759304424  0.6028338520010372   T   T   T
  0.4176416785613339  0.8350087777507447  0.6015617043039871   T   T   T
  0.6651781316642463  0.0824018060322640  0.6016915144559197   T   T   T
  0.6684748539740687  0.3318543307619773  0.6042048994580812   T   T   T
  0.6688124059644525  0.5841927961920294  0.6025740950575618   T   T   T
  0.6646537790658131  0.8352541013770248  0.6038476128000368   T   T   T
  0.9214749821050312  0.0842644549069527  0.6029365165571401   T   T   T
  0.9169383838742272  0.3354651318307200  0.6012764830770397   T   T   T
  0.9155628418590701  0.5845114030689710  0.6026100672599227   T   T   T
  0.9152354005815736  0.8306823325192241  0.6026261895302444   T   T   T
  0.0833223251846178  0.1666771555741846  0.3361358956743672   F   F   F
  0.0833223251846178  0.4166771555741846  0.3361358956743672   F   F   F
  0.0833223251846178  0.6666771555741775  0.3361358956743672   F   F   F
  0.0833223251846178  0.9166771555741775  0.3361358956743672   F   F   F
  0.3333223251846178  0.1666771555741846  0.3361358956743672   F   F   F
  0.3333223251846178  0.4166771555741846  0.3361358956743672   F   F   F
  0.3333223251846178  0.6666771555741775  0.3361358956743672   F   F   F
  0.3333223251846178  0.9166771555741775  0.3361358956743672   F   F   F
  0.5833223251846178  0.1666771555741846  0.3361358956743672   F   F   F
  0.5833223251846178  0.4166771555741846  0.3361358956743672   F   F   F
  0.5833223251846178  0.6666771555741775  0.3361358956743672   F   F   F
  0.5833223251846178  0.9166771555741775  0.3361358956743672   F   F   F
  0.8333223251846178  0.1666771555741846  0.3361358956743672   F   F   F
  0.8333223251846178  0.4166771555741846  0.3361358956743672   F   F   F
  0.8333223251846178  0.6666771555741775  0.3361358956743672   F   F   F
  0.8333223251846178  0.9166771555741775  0.3361358956743672   F   F   F
  0.1666770009509335  0.0833223773943388  0.3986358963144099   F   F   F
  0.1666770009509335  0.3333223773943388  0.3986358963144099   F   F   F
  0.1666770009509335  0.5833223773943388  0.3986358963144099   F   F   F
  0.1666770009509335  0.8333223773943388  0.3986358963144099   F   F   F
  0.4166770009509335  0.0833223773943388  0.3986358963144099   F   F   F
  0.4166770009509335  0.3333223773943388  0.3986358963144099   F   F   F
  0.4166770009509335  0.5833223773943388  0.3986358963144099   F   F   F
  0.4166770009509335  0.8333223773943388  0.3986358963144099   F   F   F
  0.6666770009509335  0.0833223773943388  0.3986358963144099   F   F   F
  0.6666770009509335  0.3333223773943388  0.3986358963144099   F   F   F
  0.6666770009509335  0.5833223773943388  0.3986358963144099   F   F   F
  0.6666770009509335  0.8333223773943388  0.3986358963144099   F   F   F
  0.9166770009509335  0.0833223773943388  0.3986358963144099   F   F   F
  0.9166770009509335  0.3333223773943388  0.3986358963144099   F   F   F
  0.9166770009509335  0.5833223773943388  0.3986358963144099   F   F   F
  0.9166770009509335  0.8333223773943388  0.3986358963144099   F   F   F
  0.0833222007698211  0.1666770668236666  0.4611358956743672   F   F   F
  0.0833222007698211  0.4166770668236666  0.4611358956743672   F   F   F
  0.0833222007698211  0.6666770668236666  0.4611358956743672   F   F   F
  0.0833222007698211  0.9166770668236666  0.4611358956743672   F   F   F
  0.3333222007698211  0.1666770668236666  0.4611358956743672   F   F   F
  0.3333222007698211  0.4166770668236666  0.4611358956743672   F   F   F
  0.3333222007698211  0.6666770668236666  0.4611358956743672   F   F   F
  0.3333222007698211  0.9166770668236666  0.4611358956743672   F   F   F
  0.5833222007698211  0.1666770668236666  0.4611358956743672   F   F   F
  0.5833222007698211  0.4166770668236666  0.4611358956743672   F   F   F
  0.5833222007698211  0.6666770668236666  0.4611358956743672   F   F   F
  0.5833222007698211  0.9166770668236666  0.4611358956743672   F   F   F
  0.8333222007698211  0.1666770668236666  0.4611358956743672   F   F   F
  0.8333222007698211  0.4166770668236666  0.4611358956743672   F   F   F
  0.8333222007698211  0.6666770668236666  0.4611358956743672   F   F   F
  0.8333222007698211  0.9166770668236666  0.4611358956743672   F   F   F
  0.1666768765361368  0.0833222886438278  0.5236358963144099   F   F   F
  0.1666768765361368  0.3333222886438278  0.5236358963144099   F   F   F
  0.1666768765361368  0.5833222886438278  0.5236358963144099   F   F   F
  0.1666768765361368  0.8333222886438278  0.5236358963144099   F   F   F
  0.4166768765361368  0.0833222886438278  0.5236358963144099   F   F   F
  0.4166768765361368  0.3333222886438278  0.5236358963144099   F   F   F
  0.4166768765361368  0.5833222886438278  0.5236358963144099   F   F   F
  0.4166768765361368  0.8333222886438278  0.5236358963144099   F   F   F
  0.6666768765361368  0.0833222886438278  0.5236358963144099   F   F   F
  0.6666768765361368  0.3333222886438278  0.5236358963144099   F   F   F
  0.6666768765361368  0.5833222886438278  0.5236358963144099   F   F   F
  0.6666768765361368  0.8333222886438278  0.5236358963144099   F   F   F
  0.9166768765361368  0.0833222886438278  0.5236358963144099   F   F   F
  0.9166768765361368  0.3333222886438278  0.5236358963144099   F   F   F
  0.9166768765361368  0.5833222886438278  0.5236358963144099   F   F   F
  0.9166768765361368  0.8333222886438278  0.5236358963144099   F   F   F
  0.0853645297084519  0.1688828496511982  0.5871948065273936   T   T   T
  0.0831499302946018  0.4165882251652026  0.5865576352000307   T   T   T
  0.0829273758914347  0.6681488471020548  0.5870561647511218   T   T   T
  0.0837436927419448  0.9142843309624316  0.5880716330567651   T   T   T
  0.3329879455939271  0.1667107089573088  0.5870195695793009   T   T   T
  0.3311376317600145  0.4144524196009835  0.5872465161183116   T   T   T
  0.3348855721648862  0.6652849851944997  0.5876693185100088   T   T   T
  0.3327598961682250  0.9178271126539130  0.5875620757266059   T   T   T
  0.5820918525715857  0.1670491002735312  0.5876162005030598   T   T   T
  0.5852307634878094  0.4157923157052963  0.5879908642320164   T   T   T
  0.5832531991762052  0.6678121794766922  0.5883085560834710   T   T   T
  0.5835949120062920  0.9166119607585299  0.5865850354858135   T   T   T
  0.8347863647736684  0.1653618668618287  0.5877253969283271   T   T   T
  0.8317947361681706  0.4171410353877828  0.5870506056252490   T   T   T
  0.8326059988658520  0.6669686544702426  0.5863910837983799   T   T   T
  0.8322600792863021  0.9167894153360275  0.5883638431548854   T   T   T
  0.1621412754942492  0.0782308909895836  0.6509611495278526   T   T   T
  0.1591838081535852  0.3406896592794332  0.6522640041747846   T   T   T
  0.1672289524170209  0.5861632319806614  0.6494857309311290   T   T   T
  0.1725800820498063  0.8287375982838743  0.6561069576753964   T   T   T
  0.4114249261726742  0.0880648391859843  0.6527937774518500   T   T   T
  0.4211855541883215  0.3368857466682195  0.6511079505244598   T   T   T
  0.4133905429038124  0.5713473111900259  0.6546275176377366   T   T   T
  0.4172658047729090  0.8315089024406159  0.6500499250609870   T   T   T
  0.6688118228230773  0.0827891695779157  0.6503022596155614   T   T   T
  0.6716391600335070  0.3278273408181544  0.6560342819718007   T   T   T
  0.6696837389109696  0.5861989884188438  0.6519989380587800   T   T   T
  0.6605155313492386  0.8395507983995074  0.6548276476902715   T   T   T
  0.9286824937532135  0.0868220040310261  0.6547120802859633   T   T   T
  0.9137828619694364  0.3334829934699886  0.6496662449835039   T   T   T
  0.9136078609446676  0.5874327148915125  0.6500788457482286   T   T   T
  0.9130071560465424  0.8293698812788517  0.6522159095997622   T   T   T
  0.0833225000000013  0.1666774999999987  0.3114693200000005   F   F   F
  0.0833225000000013  0.4166774999999987  0.3114693200000005   F   F   F
  0.0833225000000013  0.6666774999999987  0.3114693200000005   F   F   F
  0.0833225000000013  0.9166774999999987  0.3114693200000005   F   F   F
  0.3333225000000013  0.1666774999999987  0.3114693200000005   F   F   F
  0.3333225000000013  0.4166774999999987  0.3114693200000005   F   F   F
  0.3333225000000013  0.6666774999999987  0.3114693200000005   F   F   F
  0.3333225000000013  0.9166774999999987  0.3114693200000005   F   F   F
  0.5833225000000013  0.1666774999999987  0.3114693200000005   F   F   F
  0.5833225000000013  0.4166774999999987  0.3114693200000005   F   F   F
  0.5833225000000013  0.6666774999999987  0.3114693200000005   F   F   F
  0.5833225000000013  0.9166774999999987  0.3114693200000005   F   F   F
  0.8333225000000013  0.1666774999999987  0.3114693200000005   F   F   F
  0.8333225000000013  0.4166774999999987  0.3114693200000005   F   F   F
  0.8333225000000013  0.6666774999999987  0.3114693200000005   F   F   F
  0.8333225000000013  0.9166774999999987  0.3114693200000005   F   F   F
  0.0020768299181161  0.4998669706866128  0.6984425004560698   T   T   T
  0.0028493356378715  0.5012550142883124  0.7216944385386888   T   T   T
 
  0.00000000E+00  0.00000000E+00  0.00000000E+00
  0.00000000E+00  0.00000000E+00  0.00000000E+00
  0.00000000E+00  0.00000000E+00  0.00000000E+00
  0.00000000E+00  0.00000000E+00  0.00000000E+00
  0.00000000E+00  0.00000000E+00  0.00000000E+00
  0.00000000E+00  0.00000000E+00  0.00000000E+00
  0.00000000E+00  0.00000000E+00  0.00000000E+00
  0.00000000E+00  0.00000000E+00  0.00000000E+00
  0.00000000E+00  0.00000000E+00  0.00000000E+00
  0.00000000E+00  0.00000000E+00  0.00000000E+00
  0.00000000E+00  0.00000000E+00  0.00000000E+00
  0.00000000E+00  0.00000000E+00  0.00000000E+00
  0.00000000E+00  0.00000000E+00  0.00000000E+00
  0.00000000E+00  0.00000000E+00  0.00000000E+00
  0.00000000E+00  0.00000000E+00  0.00000000E+00
  0.00000000E+00  0.00000000E+00  0.00000000E+00
  0.00000000E+00  0.00000000E+00  0.00000000E+00
  0.00000000E+00  0.00000000E+00  0.00000000E+00
  0.00000000E+00  0.00000000E+00  0.00000000E+00
  0.00000000E+00  0.00000000E+00  0.00000000E+00
  0.00000000E+00  0.00000000E+00  0.00000000E+00
  0.00000000E+00  0.00000000E+00  0.00000000E+00
  0.00000000E+00  0.00000000E+00  0.00000000E+00
  0.00000000E+00  0.00000000E+00  0.00000000E+00
  0.00000000E+00  0.00000000E+00  0.00000000E+00
  0.00000000E+00  0.00000000E+00  0.00000000E+00
  0.00000000E+00  0.00000000E+00  0.00000000E+00
  0.00000000E+00  0.00000000E+00  0.00000000E+00
  0.00000000E+00  0.00000000E+00  0.00000000E+00
  0.00000000E+00  0.00000000E+00  0.00000000E+00
  0.00000000E+00  0.00000000E+00  0.00000000E+00
  0.00000000E+00  0.00000000E+00  0.00000000E+00
  0.00000000E+00  0.00000000E+00  0.00000000E+00
  0.00000000E+00  0.00000000E+00  0.00000000E+00
  0.00000000E+00  0.00000000E+00  0.00000000E+00
  0.00000000E+00  0.00000000E+00  0.00000000E+00
  0.00000000E+00  0.00000000E+00  0.00000000E+00
  0.00000000E+00  0.00000000E+00  0.00000000E+00
  0.00000000E+00  0.00000000E+00  0.00000000E+00
  0.00000000E+00  0.00000000E+00  0.00000000E+00
  0.00000000E+00  0.00000000E+00  0.00000000E+00
  0.00000000E+00  0.00000000E+00  0.00000000E+00
  0.00000000E+00  0.00000000E+00  0.00000000E+00
  0.00000000E+00  0.00000000E+00  0.00000000E+00
  0.00000000E+00  0.00000000E+00  0.00000000E+00
  0.00000000E+00  0.00000000E+00  0.00000000E+00
  0.00000000E+00  0.00000000E+00  0.00000000E+00
  0.00000000E+00  0.00000000E+00  0.00000000E+00
  0.00000000E+00  0.00000000E+00  0.00000000E+00
  0.00000000E+00  0.00000000E+00  0.00000000E+00
  0.00000000E+00  0.00000000E+00  0.00000000E+00
  0.00000000E+00  0.00000000E+00  0.00000000E+00
  0.00000000E+00  0.00000000E+00  0.00000000E+00
  0.00000000E+00  0.00000000E+00  0.00000000E+00
  0.00000000E+00  0.00000000E+00  0.00000000E+00
  0.00000000E+00  0.00000000E+00  0.00000000E+00
  0.00000000E+00  0.00000000E+00  0.00000000E+00
  0.00000000E+00  0.00000000E+00  0.00000000E+00
  0.00000000E+00  0.00000000E+00  0.00000000E+00
  0.00000000E+00  0.00000000E+00  0.00000000E+00
  0.00000000E+00  0.00000000E+00  0.00000000E+00
  0.00000000E+00  0.00000000E+00  0.00000000E+00
  0.00000000E+00  0.00000000E+00  0.00000000E+00
  0.00000000E+00  0.00000000E+00  0.00000000E+00
  0.00000000E+00  0.00000000E+00  0.00000000E+00
  0.00000000E+00  0.00000000E+00  0.00000000E+00
  0.00000000E+00  0.00000000E+00  0.00000000E+00
  0.00000000E+00  0.00000000E+00  0.00000000E+00
  0.00000000E+00  0.00000000E+00  0.00000000E+00
  0.00000000E+00  0.00000000E+00  0.00000000E+00
  0.00000000E+00  0.00000000E+00  0.00000000E+00
  0.00000000E+00  0.00000000E+00  0.00000000E+00
  0.00000000E+00  0.00000000E+00  0.00000000E+00
  0.00000000E+00  0.00000000E+00  0.00000000E+00
  0.00000000E+00  0.00000000E+00  0.00000000E+00
  0.00000000E+00  0.00000000E+00  0.00000000E+00
  0.00000000E+00  0.00000000E+00  0.00000000E+00
  0.00000000E+00  0.00000000E+00  0.00000000E+00
  0.00000000E+00  0.00000000E+00  0.00000000E+00
  0.00000000E+00  0.00000000E+00  0.00000000E+00
  0.00000000E+00  0.00000000E+00  0.00000000E+00
  0.00000000E+00  0.00000000E+00  0.00000000E+00
  0.00000000E+00  0.00000000E+00  0.00000000E+00
  0.00000000E+00  0.00000000E+00  0.00000000E+00
  0.00000000E+00  0.00000000E+00  0.00000000E+00
  0.00000000E+00  0.00000000E+00  0.00000000E+00
  0.00000000E+00  0.00000000E+00  0.00000000E+00
  0.00000000E+00  0.00000000E+00  0.00000000E+00
  0.00000000E+00  0.00000000E+00  0.00000000E+00
  0.00000000E+00  0.00000000E+00  0.00000000E+00
  0.00000000E+00  0.00000000E+00  0.00000000E+00
  0.00000000E+00  0.00000000E+00  0.00000000E+00
  0.00000000E+00  0.00000000E+00  0.00000000E+00
  0.00000000E+00  0.00000000E+00  0.00000000E+00
  0.00000000E+00  0.00000000E+00  0.00000000E+00
  0.00000000E+00  0.00000000E+00  0.00000000E+00
  0.00000000E+00  0.00000000E+00  0.00000000E+00
  0.00000000E+00  0.00000000E+00  0.00000000E+00
  0.00000000E+00  0.00000000E+00  0.00000000E+00
  0.00000000E+00  0.00000000E+00  0.00000000E+00
  0.00000000E+00  0.00000000E+00  0.00000000E+00
  0.00000000E+00  0.00000000E+00  0.00000000E+00
  0.00000000E+00  0.00000000E+00  0.00000000E+00
  0.00000000E+00  0.00000000E+00  0.00000000E+00
  0.00000000E+00  0.00000000E+00  0.00000000E+00
  0.00000000E+00  0.00000000E+00  0.00000000E+00
  0.00000000E+00  0.00000000E+00  0.00000000E+00
  0.00000000E+00  0.00000000E+00  0.00000000E+00
  0.00000000E+00  0.00000000E+00  0.00000000E+00
  0.00000000E+00  0.00000000E+00  0.00000000E+00
  0.00000000E+00  0.00000000E+00  0.00000000E+00
  0.00000000E+00  0.00000000E+00  0.00000000E+00
  0.00000000E+00  0.00000000E+00  0.00000000E+00
  0.00000000E+00  0.00000000E+00  0.00000000E+00
  0.00000000E+00  0.00000000E+00  0.00000000E+00
  0.00000000E+00  0.00000000E+00  0.00000000E+00
  0.00000000E+00  0.00000000E+00  0.00000000E+00
  0.00000000E+00  0.00000000E+00  0.00000000E+00
  0.00000000E+00  0.00000000E+00  0.00000000E+00
  0.00000000E+00  0.00000000E+00  0.00000000E+00
  0.00000000E+00  0.00000000E+00  0.00000000E+00
  0.00000000E+00  0.00000000E+00  0.00000000E+00
  0.00000000E+00  0.00000000E+00  0.00000000E+00
  0.00000000E+00  0.00000000E+00  0.00000000E+00
  0.00000000E+00  0.00000000E+00  0.00000000E+00
  0.00000000E+00  0.00000000E+00  0.00000000E+00
  0.00000000E+00  0.00000000E+00  0.00000000E+00
  0.00000000E+00  0.00000000E+00  0.00000000E+00
  0.00000000E+00  0.00000000E+00  0.00000000E+00
  0.00000000E+00  0.00000000E+00  0.00000000E+00
  0.00000000E+00  0.00000000E+00  0.00000000E+00
  0.00000000E+00  0.00000000E+00  0.00000000E+00
  0.00000000E+00  0.00000000E+00  0.00000000E+00
  0.00000000E+00  0.00000000E+00  0.00000000E+00
  0.00000000E+00  0.00000000E+00  0.00000000E+00
  0.00000000E+00  0.00000000E+00  0.00000000E+00
  0.00000000E+00  0.00000000E+00  0.00000000E+00
  0.00000000E+00  0.00000000E+00  0.00000000E+00
  0.00000000E+00  0.00000000E+00  0.00000000E+00
  0.00000000E+00  0.00000000E+00  0.00000000E+00
  0.00000000E+00  0.00000000E+00  0.00000000E+00
  0.00000000E+00  0.00000000E+00  0.00000000E+00
  0.00000000E+00  0.00000000E+00  0.00000000E+00
  0.00000000E+00  0.00000000E+00  0.00000000E+00
  0.00000000E+00  0.00000000E+00  0.00000000E+00
  0.00000000E+00  0.00000000E+00  0.00000000E+00
  0.00000000E+00  0.00000000E+00  0.00000000E+00
  0.00000000E+00  0.00000000E+00  0.00000000E+00
  0.00000000E+00  0.00000000E+00  0.00000000E+00
  0.00000000E+00  0.00000000E+00  0.00000000E+00
  0.00000000E+00  0.00000000E+00  0.00000000E+00
  0.00000000E+00  0.00000000E+00  0.00000000E+00
  0.00000000E+00  0.00000000E+00  0.00000000E+00
  0.00000000E+00  0.00000000E+00  0.00000000E+00
  0.00000000E+00  0.00000000E+00  0.00000000E+00
  0.00000000E+00  0.00000000E+00  0.00000000E+00
  0.00000000E+00  0.00000000E+00  0.00000000E+00
  0.00000000E+00  0.00000000E+00  0.00000000E+00
  0.00000000E+00  0.00000000E+00  0.00000000E+00
  0.00000000E+00  0.00000000E+00  0.00000000E+00
  0.00000000E+00  0.00000000E+00  0.00000000E+00
  0.00000000E+00  0.00000000E+00  0.00000000E+00
  0.00000000E+00  0.00000000E+00  0.00000000E+00
  0.00000000E+00  0.00000000E+00  0.00000000E+00
  0.00000000E+00  0.00000000E+00  0.00000000E+00
  0.00000000E+00  0.00000000E+00  0.00000000E+00
  0.00000000E+00  0.00000000E+00  0.00000000E+00
  0.00000000E+00  0.00000000E+00  0.00000000E+00
  0.00000000E+00  0.00000000E+00  0.00000000E+00
  0.00000000E+00  0.00000000E+00  0.00000000E+00
  0.00000000E+00  0.00000000E+00  0.00000000E+00
  0.00000000E+00  0.00000000E+00  0.00000000E+00
  0.00000000E+00  0.00000000E+00  0.00000000E+00
  0.00000000E+00  0.00000000E+00  0.00000000E+00
  0.00000000E+00  0.00000000E+00  0.00000000E+00
  0.00000000E+00  0.00000000E+00  0.00000000E+00
  0.00000000E+00  0.00000000E+00  0.00000000E+00
  0.00000000E+00  0.00000000E+00  0.00000000E+00
  0.00000000E+00  0.00000000E+00  0.00000000E+00
  0.00000000E+00  0.00000000E+00  0.00000000E+00
  0.00000000E+00  0.00000000E+00  0.00000000E+00
  0.00000000E+00  0.00000000E+00  0.00000000E+00
  0.00000000E+00  0.00000000E+00  0.00000000E+00
  0.00000000E+00  0.00000000E+00  0.00000000E+00
  0.00000000E+00  0.00000000E+00  0.00000000E+00
  0.00000000E+00  0.00000000E+00  0.00000000E+00
  0.00000000E+00  0.00000000E+00  0.00000000E+00
  0.00000000E+00  0.00000000E+00  0.00000000E+00
  0.00000000E+00  0.00000000E+00  0.00000000E+00
  0.00000000E+00  0.00000000E+00  0.00000000E+00
  0.00000000E+00  0.00000000E+00  0.00000000E+00
  0.00000000E+00  0.00000000E+00  0.00000000E+00
  0.00000000E+00  0.00000000E+00  0.00000000E+00
  0.00000000E+00  0.00000000E+00  0.00000000E+00
  0.00000000E+00  0.00000000E+00  0.00000000E+00
  0.00000000E+00  0.00000000E+00  0.00000000E+00
  0.00000000E+00  0.00000000E+00  0.00000000E+00
  0.00000000E+00  0.00000000E+00  0.00000000E+00
  0.00000000E+00  0.00000000E+00  0.00000000E+00
  0.00000000E+00  0.00000000E+00  0.00000000E+00
  0.00000000E+00  0.00000000E+00  0.00000000E+00
  0.00000000E+00  0.00000000E+00  0.00000000E+00
  0.00000000E+00  0.00000000E+00  0.00000000E+00
  0.00000000E+00  0.00000000E+00  0.00000000E+00
  0.00000000E+00  0.00000000E+00  0.00000000E+00
  0.00000000E+00  0.00000000E+00  0.00000000E+00
  0.00000000E+00  0.00000000E+00  0.00000000E+00
  0.00000000E+00  0.00000000E+00  0.00000000E+00
  0.00000000E+00  0.00000000E+00  0.00000000E+00
  0.00000000E+00  0.00000000E+00  0.00000000E+00
