Zn96 H18 Pt4 O96
1.0
  12.9159910000000000    0.0000000000000000    0.0000000000000000
  -6.4575310000000004   11.1858439999999995    0.0000000000000000
   0.0000000000000000    0.0000000000000000   41.8715669999999989
Zn O H Pt O H
96 95 16 4 1 2
Selective dynamics
direct
   0.0857440743085718    0.1679946832672030    0.4123688805361355 T T T Zn
   0.0788693537772645    0.4166840899770606    0.4121957117548689 T T T Zn
   0.0850430732275882    0.6699770833879626    0.4118959073836237 T T T Zn
   0.0809093965748104    0.9158001033968048    0.4122824680453618 T T T Zn
   0.3314901246261499    0.1642810047126275    0.4143687735394508 T T T Zn
   0.3330141962970928    0.4211203042918399    0.4143965586629577 T T T Zn
   0.3277695921249730    0.6718533862246617    0.4129691410547593 T T T Zn
   0.3280334589595101    0.9139362339230389    0.4120827200195122 T T T Zn
   0.5702678687054856    0.1502384479344769    0.4156406707548328 T T T Zn
   0.5924408285983489    0.4124040199876760    0.4135206573133984 T T T Zn
   0.5826248362413367    0.6736243855292727    0.4140936154906996 T T T Zn
   0.5844868557014921    0.9214024167042681    0.4106541148619058 T T T Zn
   0.8352862576135536    0.1666428431559552    0.4136203627635667 T T T Zn
   0.8477565266443747    0.4272734515961076    0.4149670049583776 T T T Zn
   0.8390448040545877    0.6727193706624277    0.4139344257867136 T T T Zn
   0.8294177496809638    0.9111767697615321    0.4125738836765719 T T T Zn
   0.1879832026235491    0.0654461361516638    0.3479813463727268 T T T Zn
   0.1897601864475149    0.3771851142615859    0.3494575028609574 T T T Zn
   0.1594032352829302    0.5896930253984891    0.3441162078440527 T T T Zn
   0.1614034253603265    0.8288158761464075    0.3437851429906829 T T T Zn
   0.4297779183790169    0.0859708292050101    0.3482914676529774 T T T Zn
   0.4262538438809501    0.3391582838403195    0.3567646515379010 T T T Zn
   0.4105938227753967    0.6053929627921519    0.3527742716796283 T T T Zn
   0.4068429142898040    0.8375854286590751    0.3454160821973957 T T T Zn
   0.6642058839496130    0.0697961329836616    0.3301867115817529 T T T Zn
   0.7261215920459207    0.2609656785345535    0.3702252247977214 T T T Zn
   0.6662519081078884    0.5820199814479992    0.3563733888293754 T T T Zn
   0.6574658971923668    0.8281158690570579    0.3434233196463978 T T T Zn
   0.8755991816619969    0.0589330569159401    0.3513548896586585 T T T Zn
   0.9287645391234277    0.3312307626116535    0.3387436302181754 T T T Zn
   0.9101793314294966    0.5714631733134183    0.3482789556118249 T T T Zn
   0.9184558343433693    0.8386910655178427    0.3443396462875228 T T T Zn
   0.0833420000000018    0.1666570000000007    0.5388639999999967 F F F Zn
   0.0833420000000018    0.4166570000000007    0.5388639999999967 F F F Zn
   0.0833420000000018    0.6666570000000007    0.5388639999999967 F F F Zn
   0.0833420000000019    0.9166570000000008    0.5388639999999967 F F F Zn
   0.3333420000000018    0.1666570000000007    0.5388639999999967 F F F Zn
   0.3333420000000018    0.4166570000000007    0.5388639999999967 F F F Zn
   0.3333420000000018    0.6666570000000007    0.5388639999999967 F F F Zn
   0.3333420000000018    0.9166570000000008    0.5388639999999967 F F F Zn
   0.5833420000000018    0.1666570000000007    0.5388639999999967 F F F Zn
   0.5833420000000018    0.4166570000000007    0.5388639999999967 F F F Zn
   0.5833420000000018    0.6666570000000007    0.5388639999999967 F F F Zn
   0.5833420000000018    0.9166570000000008    0.5388639999999967 F F F Zn
   0.8333420000000018    0.1666570000000007    0.5388639999999967 F F F Zn
   0.8333420000000017    0.4166570000000007    0.5388639999999967 F F F Zn
   0.8333420000000018    0.6666570000000007    0.5388639999999967 F F F Zn
   0.8333420000000018    0.9166570000000008    0.5388639999999967 F F F Zn
   0.1666570000000007    0.0833420000000018    0.4763639999999966 F F F Zn
   0.1666570000000007    0.3333420000000018    0.4763639999999966 F F F Zn
   0.1666570000000007    0.5833420000000018    0.4763639999999966 F F F Zn
   0.1666570000000007    0.8333420000000018    0.4763639999999966 F F F Zn
   0.4166570000000007    0.0833420000000018    0.4763639999999966 F F F Zn
   0.4166570000000007    0.3333420000000018    0.4763639999999966 F F F Zn
   0.4166570000000007    0.5833420000000018    0.4763639999999966 F F F Zn
   0.4166570000000007    0.8333420000000018    0.4763639999999966 F F F Zn
   0.6666570000000007    0.0833420000000018    0.4763639999999966 F F F Zn
   0.6666570000000007    0.3333420000000018    0.4763639999999966 F F F Zn
   0.6666570000000007    0.5833420000000018    0.4763639999999966 F F F Zn
   0.6666570000000007    0.8333420000000018    0.4763639999999966 F F F Zn
   0.9166570000000006    0.0833420000000018    0.4763639999999966 F F F Zn
   0.9166570000000008    0.3333420000000018    0.4763639999999966 F F F Zn
   0.9166570000000007    0.5833420000000018    0.4763639999999966 F F F Zn
   0.9166570000000006    0.8333420000000018    0.4763639999999966 F F F Zn
   0.0833420000000018    0.1666570000000007    0.6638639999999967 F F F Zn
   0.0833420000000018    0.4166570000000007    0.6638639999999967 F F F Zn
   0.0833420000000018    0.6666570000000007    0.6638639999999967 F F F Zn
   0.0833420000000019    0.9166570000000008    0.6638639999999967 F F F Zn
   0.3333420000000018    0.1666570000000007    0.6638639999999967 F F F Zn
   0.3333420000000018    0.4166570000000007    0.6638639999999967 F F F Zn
   0.3333420000000018    0.6666570000000007    0.6638639999999967 F F F Zn
   0.3333420000000018    0.9166570000000008    0.6638639999999967 F F F Zn
   0.5833420000000018    0.1666570000000007    0.6638639999999967 F F F Zn
   0.5833420000000018    0.4166570000000007    0.6638639999999967 F F F Zn
   0.5833420000000018    0.6666570000000007    0.6638639999999967 F F F Zn
   0.5833420000000018    0.9166570000000008    0.6638639999999967 F F F Zn
   0.8333420000000018    0.1666570000000007    0.6638639999999967 F F F Zn
   0.8333420000000017    0.4166570000000007    0.6638639999999967 F F F Zn
   0.8333420000000018    0.6666570000000007    0.6638639999999967 F F F Zn
   0.8333420000000018    0.9166570000000008    0.6638639999999967 F F F Zn
   0.1666570000000007    0.0833420000000018    0.6013639999999967 F F F Zn
   0.1666570000000007    0.3333420000000018    0.6013639999999967 F F F Zn
   0.1666570000000007    0.5833420000000018    0.6013639999999967 F F F Zn
   0.1666570000000007    0.8333420000000018    0.6013639999999967 F F F Zn
   0.4166570000000007    0.0833420000000018    0.6013639999999967 F F F Zn
   0.4166570000000007    0.3333420000000018    0.6013639999999967 F F F Zn
   0.4166570000000007    0.5833420000000018    0.6013639999999967 F F F Zn
   0.4166570000000007    0.8333420000000018    0.6013639999999967 F F F Zn
   0.6666570000000007    0.0833420000000018    0.6013639999999967 F F F Zn
   0.6666570000000007    0.3333420000000018    0.6013639999999967 F F F Zn
   0.6666570000000007    0.5833420000000018    0.6013639999999967 F F F Zn
   0.6666570000000007    0.8333420000000018    0.6013639999999967 F F F Zn
   0.9166570000000006    0.0833420000000018    0.6013639999999967 F F F Zn
   0.9166570000000008    0.3333420000000018    0.6013639999999967 F F F Zn
   0.9166570000000007    0.5833420000000018    0.6013639999999967 F F F Zn
   0.9166570000000006    0.8333420000000018    0.6013639999999967 F F F Zn
   0.0905655212212864    0.4220135600980015    0.3293844749959831 T T T O
   0.0681218092205996    0.6631505334665776    0.3334024337116759 T T T O
   0.0810240959051570    0.9184668244290323    0.3306956313632696 T T T O
   0.3501844869939744    0.1845924275237110    0.3309714684383991 T T T O
   0.3519938716146527    0.4290132938058733    0.3364797323015623 T T T O
   0.3257452020118592    0.6708400965526309    0.3345395286102075 T T T O
   0.3298768831575245    0.9279055254268940    0.3346347900586437 T T T O
   0.5990837098666120    0.1824852706741140    0.3340443133739583 T T T O
   0.6065391388001018    0.3971106087331365    0.3553330233166818 T T T O
   0.5720500284232770    0.6506291150302133    0.3350182061108455 T T T O
   0.5709372333278608    0.9063477730628265    0.3309334792288823 T T T O
   0.8336385066256896    0.1643335845577880    0.3310489031986350 T T T O
   0.8145541499751374    0.3977051851470109    0.3358238609155535 T T T O
   0.8167811658077682    0.6504376800417262    0.3293197301917488 T T T O
   0.8245991022736519    0.9085452121621955    0.3327441221552547 T T T O
   0.1704448437950461    0.0874213632875964    0.3938887144170380 T T T O
   0.1682051361602817    0.3346754175829219    0.3950572562989052 T T T O
   0.1624209069798398    0.5808998031013104    0.3961923763811726 T T T O
   0.1637042671284519    0.8349968171744352    0.3958903068683242 T T T O
   0.4139198795331041    0.0849221621293523    0.3960507379855969 T T T O
   0.4180457530345763    0.3351566350469710    0.4022240935264135 T T T O
   0.4152051235091676    0.5866455954578599    0.3992109015465600 T T T O
   0.4171370607987583    0.8372622132106358    0.3966642488584000 T T T O
   0.6719373198313434    0.0933018806710137    0.3947043502705299 T T T O
   0.6752301563220726    0.3235269284519688    0.4059560551163486 T T T O
   0.6666084219348676    0.5850782377608610    0.4018633239095308 T T T O
   0.6651987477144203    0.8343498881193838    0.3946701019255840 T T T O
   0.9183142721980602    0.0827646852438377    0.3968664493356471 T T T O
   0.9114120743080248    0.3301693968984267    0.3933187314432445 T T T O
   0.9144952906124004    0.5852662771722876    0.3961764245003891 T T T O
   0.9156443148794651    0.8331011789790281    0.3944335601162692 T T T O
   0.0833220000000026    0.1666770000000000    0.4611360000000033 F F F O
   0.0833220000000026    0.4166770000000000    0.4611360000000033 F F F O
   0.0833220000000027    0.6666770000000001    0.4611360000000033 F F F O
   0.0833220000000026    0.9166770000000000    0.4611360000000033 F F F O
   0.3333220000000026    0.1666770000000000    0.4611360000000033 F F F O
   0.3333220000000026    0.4166770000000000    0.4611360000000033 F F F O
   0.3333220000000027    0.6666770000000001    0.4611360000000033 F F F O
   0.3333220000000027    0.9166770000000000    0.4611360000000033 F F F O
   0.5833220000000024    0.1666770000000000    0.4611360000000033 F F F O
   0.5833220000000026    0.4166770000000000    0.4611360000000033 F F F O
   0.5833220000000026    0.6666770000000001    0.4611360000000033 F F F O
   0.5833220000000026    0.9166770000000000    0.4611360000000033 F F F O
   0.8333220000000024    0.1666770000000000    0.4611360000000033 F F F O
   0.8333220000000024    0.4166770000000000    0.4611360000000033 F F F O
   0.8333220000000027    0.6666770000000001    0.4611360000000033 F F F O
   0.8333220000000026    0.9166770000000000    0.4611360000000033 F F F O
   0.1666770000000000    0.0833220000000026    0.5236360000000033 F F F O
   0.1666770000000000    0.3333220000000027    0.5236360000000033 F F F O
   0.1666770000000000    0.5833220000000027    0.5236360000000033 F F F O
   0.1666770000000000    0.8333220000000026    0.5236360000000033 F F F O
   0.4166770000000000    0.0833220000000026    0.5236360000000033 F F F O
   0.4166770000000000    0.3333220000000027    0.5236360000000033 F F F O
   0.4166770000000000    0.5833220000000027    0.5236360000000033 F F F O
   0.4166770000000000    0.8333220000000026    0.5236360000000033 F F F O
   0.6666770000000000    0.0833220000000026    0.5236360000000033 F F F O
   0.6666770000000000    0.3333220000000027    0.5236360000000033 F F F O
   0.6666770000000000    0.5833220000000027    0.5236360000000033 F F F O
   0.6666770000000000    0.8333220000000026    0.5236360000000033 F F F O
   0.9166770000000000    0.0833220000000026    0.5236360000000033 F F F O
   0.9166769999999999    0.3333220000000027    0.5236360000000033 F F F O
   0.9166770000000000    0.5833220000000027    0.5236360000000033 F F F O
   0.9166770000000000    0.8333220000000026    0.5236360000000033 F F F O
   0.0833220000000026    0.1666770000000000    0.5861360000000033 F F F O
   0.0833220000000026    0.4166770000000000    0.5861360000000033 F F F O
   0.0833220000000027    0.6666770000000001    0.5861360000000033 F F F O
   0.0833220000000026    0.9166770000000000    0.5861360000000033 F F F O
   0.3333220000000026    0.1666770000000000    0.5861360000000033 F F F O
   0.3333220000000026    0.4166770000000000    0.5861360000000033 F F F O
   0.3333220000000027    0.6666770000000001    0.5861360000000033 F F F O
   0.3333220000000027    0.9166770000000000    0.5861360000000033 F F F O
   0.5833220000000024    0.1666770000000000    0.5861360000000033 F F F O
   0.5833220000000026    0.4166770000000000    0.5861360000000033 F F F O
   0.5833220000000026    0.6666770000000001    0.5861360000000033 F F F O
   0.5833220000000026    0.9166770000000000    0.5861360000000033 F F F O
   0.8333220000000024    0.1666770000000000    0.5861360000000033 F F F O
   0.8333220000000024    0.4166770000000000    0.5861360000000033 F F F O
   0.8333220000000027    0.6666770000000001    0.5861360000000033 F F F O
   0.8333220000000026    0.9166770000000000    0.5861360000000033 F F F O
   0.1666770000000000    0.0833220000000026    0.6486360000000033 F F F O
   0.1666770000000000    0.3333220000000027    0.6486360000000033 F F F O
   0.1666770000000000    0.5833220000000027    0.6486360000000033 F F F O
   0.1666770000000000    0.8333220000000026    0.6486360000000033 F F F O
   0.4166770000000000    0.0833220000000026    0.6486360000000033 F F F O
   0.4166770000000000    0.3333220000000027    0.6486360000000033 F F F O
   0.4166770000000000    0.5833220000000027    0.6486360000000033 F F F O
   0.4166770000000000    0.8333220000000026    0.6486360000000033 F F F O
   0.6666770000000000    0.0833220000000026    0.6486360000000033 F F F O
   0.6666770000000000    0.3333220000000027    0.6486360000000033 F F F O
   0.6666770000000000    0.5833220000000027    0.6486360000000033 F F F O
   0.6666770000000000    0.8333220000000026    0.6486360000000033 F F F O
   0.9166770000000000    0.0833220000000026    0.6486360000000033 F F F O
   0.9166769999999999    0.3333220000000027    0.6486360000000033 F F F O
   0.9166770000000000    0.5833220000000027    0.6486360000000033 F F F O
   0.9166770000000000    0.8333220000000026    0.6486360000000033 F F F O
   0.0833420000000018    0.1666579999999982    0.7015940000000001 F F F H
   0.0833420000000018    0.4166579999999983    0.7015940000000001 F F F H
   0.0833420000000019    0.6666579999999983    0.7015940000000001 F F F H
   0.0833420000000018    0.9166579999999982    0.7015940000000001 F F F H
   0.3333420000000018    0.1666579999999982    0.7015940000000001 F F F H
   0.3333420000000018    0.4166579999999983    0.7015940000000001 F F F H
   0.3333420000000018    0.6666579999999983    0.7015940000000001 F F F H
   0.3333420000000018    0.9166579999999982    0.7015940000000001 F F F H
   0.5833420000000018    0.1666579999999982    0.7015940000000001 F F F H
   0.5833420000000018    0.4166579999999983    0.7015940000000001 F F F H
   0.5833420000000018    0.6666579999999983    0.7015940000000001 F F F H
   0.5833420000000018    0.9166579999999982    0.7015940000000001 F F F H
   0.8333420000000017    0.1666579999999982    0.7015940000000001 F F F H
   0.8333420000000018    0.4166579999999983    0.7015940000000001 F F F H
   0.8333420000000018    0.6666579999999983    0.7015940000000001 F F F H
   0.8333420000000018    0.9166579999999982    0.7015940000000001 F F F H
   0.7184014633469999    0.5557565436654102    0.2928449793506545 T T T Pt
   0.5063074095808346    0.4949940916360590    0.3084579977278494 T T T Pt
   0.6516472871128868    0.3495615519148104    0.3155631995704269 T T T Pt
   0.4442291126291167    0.2820411337602948    0.2930119854185094 T T T Pt
   0.2320595911670119    0.2429332059656817    0.3025641966730790 T T T O
   0.2333420000000018    0.2416579999999986    0.2793591099133692 T T T H
   0.2737850034346368    0.2011849519224463    0.3090291439725197 T T T H
