ZnH4                                    
   1.00000000000000     
    13.0000000000000000    0.0000000000000000    0.0000000000000000
     0.0000000000000000   14.0000000000000000    0.0000000000000000
     0.0000000000000000    0.0000000000000000   15.0000000000000000
   Zn   H 
     1     4
Selective dynamics
Direct
  0.3726053846153832  0.3329042857142852  0.6997500000000016   F   F   F
  0.3249081847697894  0.4189869861501521  0.7787799256043826   T   T   T
  0.4093122748785447  0.4384921375106927  0.7602659069999049   T   T   T
  0.4979567628052592  0.3281344961097545  0.6493684530850530   T   T   T
  0.2501953876846770  0.2732523975442973  0.7015117453179158   T   T   T
 
  0.00000000E+00  0.00000000E+00  0.00000000E+00
  0.00000000E+00  0.00000000E+00  0.00000000E+00
  0.00000000E+00  0.00000000E+00  0.00000000E+00
  0.00000000E+00  0.00000000E+00  0.00000000E+00
  0.00000000E+00  0.00000000E+00  0.00000000E+00
