Zn96 H16 O96                            
    1.000000000000000     
    12.9159907272337371    0.0000000000000000    0.0000000000000008
    -6.4575301003323453   11.1858448318051593    0.0000000000000008
     0.0000000000000000    0.0000000000000000   41.8715658066988325
   Zn   O    H    H 
    96    96    16     1
Selective dynamics
Direct
  0.0833422700331283  0.1666569644086167  0.4138641089449635   F   F   F
  0.0833422700331283  0.4166569644086238  0.4138641089449635   F   F   F
  0.0833422700331283  0.6666569644086167  0.4138641089449635   F   F   F
  0.0833422700331283  0.9166569644086167  0.4138641089449635   F   F   F
  0.3333422700331283  0.1666569644086167  0.4138641089449635   F   F   F
  0.3333422700331283  0.4166569644086238  0.4138641089449635   F   F   F
  0.3333422700331283  0.6666569644086167  0.4138641089449635   F   F   F
  0.3333422700331283  0.9166569644086167  0.4138641089449635   F   F   F
  0.5833422700331283  0.1666569644086167  0.4138641089449635   F   F   F
  0.5833422700331283  0.4166569644086238  0.4138641089449635   F   F   F
  0.5833422700331283  0.6666569644086167  0.4138641089449635   F   F   F
  0.5833422700331283  0.9166569644086167  0.4138641089449635   F   F   F
  0.8333422700331283  0.1666569644086167  0.4138641089449635   F   F   F
  0.8333422700331283  0.4166569644086238  0.4138641089449635   F   F   F
  0.8333422700331283  0.6666569644086167  0.4138641089449635   F   F   F
  0.8333422700331283  0.9166569644086167  0.4138641089449635   F   F   F
  0.1666568958537624  0.0833424376166505  0.3513640990662594   F   F   F
  0.1666568958537624  0.3333424376166505  0.3513640990662594   F   F   F
  0.1666568958537624  0.5833424376166505  0.3513640990662594   F   F   F
  0.1666568958537624  0.8333424376166505  0.3513640990662594   F   F   F
  0.4166568958537624  0.0833424376166505  0.3513640990662594   F   F   F
  0.4166568958537624  0.3333424376166505  0.3513640990662594   F   F   F
  0.4166568958537624  0.5833424376166505  0.3513640990662594   F   F   F
  0.4166568958537624  0.8333424376166505  0.3513640990662594   F   F   F
  0.6666568958537624  0.0833424376166505  0.3513640990662594   F   F   F
  0.6666568958537624  0.3333424376166505  0.3513640990662594   F   F   F
  0.6666568958537624  0.5833424376166505  0.3513640990662594   F   F   F
  0.6666568958537624  0.8333424376166505  0.3513640990662594   F   F   F
  0.9166568958537624  0.0833424376166505  0.3513640990662594   F   F   F
  0.9166568958537624  0.3333424376166505  0.3513640990662594   F   F   F
  0.9166568958537624  0.5833424376166505  0.3513640990662594   F   F   F
  0.9166568958537624  0.8333424376166505  0.3513640990662594   F   F   F
  0.0833421456183316  0.1666568756581057  0.5388641089449635   F   F   F
  0.0833421456183316  0.4166568756581057  0.5388641089449635   F   F   F
  0.0833421456183316  0.6666568756581057  0.5388641089449635   F   F   F
  0.0833421456183316  0.9166568756581057  0.5388641089449635   F   F   F
  0.3333421456183316  0.1666568756581057  0.5388641089449635   F   F   F
  0.3333421456183316  0.4166568756581057  0.5388641089449635   F   F   F
  0.3333421456183316  0.6666568756581057  0.5388641089449635   F   F   F
  0.3333421456183316  0.9166568756581057  0.5388641089449635   F   F   F
  0.5833421456183316  0.1666568756581057  0.5388641089449635   F   F   F
  0.5833421456183316  0.4166568756581057  0.5388641089449635   F   F   F
  0.5833421456183316  0.6666568756581057  0.5388641089449635   F   F   F
  0.5833421456183316  0.9166568756581057  0.5388641089449635   F   F   F
  0.8333421456183316  0.1666568756581057  0.5388641089449635   F   F   F
  0.8333421456183316  0.4166568756581057  0.5388641089449635   F   F   F
  0.8333421456183316  0.6666568756581057  0.5388641089449635   F   F   F
  0.8333421456183316  0.9166568756581057  0.5388641089449635   F   F   F
  0.1666567714389657  0.0833423488661396  0.4763640990662594   F   F   F
  0.1666567714389657  0.3333423488661396  0.4763640990662594   F   F   F
  0.1666567714389657  0.5833423488661396  0.4763640990662594   F   F   F
  0.1666567714389657  0.8333423488661396  0.4763640990662594   F   F   F
  0.4166567714389657  0.0833423488661396  0.4763640990662594   F   F   F
  0.4166567714389657  0.3333423488661396  0.4763640990662594   F   F   F
  0.4166567714389657  0.5833423488661396  0.4763640990662594   F   F   F
  0.4166567714389657  0.8333423488661396  0.4763640990662594   F   F   F
  0.6666567714389657  0.0833423488661396  0.4763640990662594   F   F   F
  0.6666567714389657  0.3333423488661396  0.4763640990662594   F   F   F
  0.6666567714389657  0.5833423488661396  0.4763640990662594   F   F   F
  0.6666567714389657  0.8333423488661396  0.4763640990662594   F   F   F
  0.9166567714389657  0.0833423488661396  0.4763640990662594   F   F   F
  0.9166567714389657  0.3333423488661396  0.4763640990662594   F   F   F
  0.9166567714389657  0.5833423488661396  0.4763640990662594   F   F   F
  0.9166567714389657  0.8333423488661396  0.4763640990662594   F   F   F
  0.0799108600569269  0.1592615351360962  0.6693045446334054   T   T   T
  0.0844870141102163  0.4169884470454477  0.6723812628329497   T   T   T
  0.0846215362118556  0.6687869197266139  0.6633220015290533   T   T   T
  0.0755049404435582  0.9249029783572809  0.6728640757475901   T   T   T
  0.3323514292870584  0.1712188389782625  0.6596835632066416   T   T   T
  0.3285957577564602  0.4136277062078619  0.6609735284162355   T   T   T
  0.3326828062233318  0.6676145796387800  0.6659955692870057   T   T   T
  0.3310950725337136  0.9154423589140421  0.6631205231866772   T   T   T
  0.5861792344081209  0.1688696901216886  0.6613200096189615   T   T   T
  0.5825846158228458  0.4178348287015012  0.6766305719674932   T   T   T
  0.5863378509103114  0.6716835809851958  0.6611351915530079   T   T   T
  0.5830790931528895  0.9152580921648905  0.6724819788611001   T   T   T
  0.8342296636588173  0.1655405449572953  0.6629588111189264   T   T   T
  0.8315696260075214  0.4141274055856741  0.6615845444772575   T   T   T
  0.8287881690352563  0.6677371833980459  0.6595735802884306   T   T   T
  0.8406165709316511  0.9203172573410825  0.6691731801846004   T   T   T
  0.1641171997468263  0.0826941269209556  0.6020421757940966   T   T   T
  0.1628891471269469  0.3315462553923325  0.6038466306532939   T   T   T
  0.1659116407250849  0.5822764212483520  0.6031980847057667   T   T   T
  0.1642081141316112  0.8356472821806307  0.6043539537794587   T   T   T
  0.4160554050783176  0.0827958538859974  0.6015706426820842   T   T   T
  0.4191896908928570  0.3362007548460326  0.6026872383554078   T   T   T
  0.4154722801450177  0.5845938872092091  0.6019748320697929   T   T   T
  0.4177300406033098  0.8340815192015114  0.6031915929112017   T   T   T
  0.6664243941477039  0.0812497986995595  0.6028169917482060   T   T   T
  0.6654259681219443  0.3348806855100221  0.6030323938631810   T   T   T
  0.6637631320748270  0.5809666065938259  0.6026671693309993   T   T   T
  0.6684777361525036  0.8371749543036842  0.6037825488524504   T   T   T
  0.9171959723382273  0.0829782344920744  0.6024104385303417   T   T   T
  0.9187312457580319  0.3335867034745377  0.6028059124435146   T   T   T
  0.9172541738471622  0.5839724841145113  0.6016205269788628   T   T   T
  0.9173776532736611  0.8359734171869277  0.6020921103289396   T   T   T
  0.0833223251846178  0.1666771555741846  0.3361358956743672   F   F   F
  0.0833223251846178  0.4166771555741846  0.3361358956743672   F   F   F
  0.0833223251846178  0.6666771555741775  0.3361358956743672   F   F   F
  0.0833223251846178  0.9166771555741775  0.3361358956743672   F   F   F
  0.3333223251846178  0.1666771555741846  0.3361358956743672   F   F   F
  0.3333223251846178  0.4166771555741846  0.3361358956743672   F   F   F
  0.3333223251846178  0.6666771555741775  0.3361358956743672   F   F   F
  0.3333223251846178  0.9166771555741775  0.3361358956743672   F   F   F
  0.5833223251846178  0.1666771555741846  0.3361358956743672   F   F   F
  0.5833223251846178  0.4166771555741846  0.3361358956743672   F   F   F
  0.5833223251846178  0.6666771555741775  0.3361358956743672   F   F   F
  0.5833223251846178  0.9166771555741775  0.3361358956743672   F   F   F
  0.8333223251846178  0.1666771555741846  0.3361358956743672   F   F   F
  0.8333223251846178  0.4166771555741846  0.3361358956743672   F   F   F
  0.8333223251846178  0.6666771555741775  0.3361358956743672   F   F   F
  0.8333223251846178  0.9166771555741775  0.3361358956743672   F   F   F
  0.1666770009509335  0.0833223773943388  0.3986358963144099   F   F   F
  0.1666770009509335  0.3333223773943388  0.3986358963144099   F   F   F
  0.1666770009509335  0.5833223773943388  0.3986358963144099   F   F   F
  0.1666770009509335  0.8333223773943388  0.3986358963144099   F   F   F
  0.4166770009509335  0.0833223773943388  0.3986358963144099   F   F   F
  0.4166770009509335  0.3333223773943388  0.3986358963144099   F   F   F
  0.4166770009509335  0.5833223773943388  0.3986358963144099   F   F   F
  0.4166770009509335  0.8333223773943388  0.3986358963144099   F   F   F
  0.6666770009509335  0.0833223773943388  0.3986358963144099   F   F   F
  0.6666770009509335  0.3333223773943388  0.3986358963144099   F   F   F
  0.6666770009509335  0.5833223773943388  0.3986358963144099   F   F   F
  0.6666770009509335  0.8333223773943388  0.3986358963144099   F   F   F
  0.9166770009509335  0.0833223773943388  0.3986358963144099   F   F   F
  0.9166770009509335  0.3333223773943388  0.3986358963144099   F   F   F
  0.9166770009509335  0.5833223773943388  0.3986358963144099   F   F   F
  0.9166770009509335  0.8333223773943388  0.3986358963144099   F   F   F
  0.0833222007698211  0.1666770668236666  0.4611358956743672   F   F   F
  0.0833222007698211  0.4166770668236666  0.4611358956743672   F   F   F
  0.0833222007698211  0.6666770668236666  0.4611358956743672   F   F   F
  0.0833222007698211  0.9166770668236666  0.4611358956743672   F   F   F
  0.3333222007698211  0.1666770668236666  0.4611358956743672   F   F   F
  0.3333222007698211  0.4166770668236666  0.4611358956743672   F   F   F
  0.3333222007698211  0.6666770668236666  0.4611358956743672   F   F   F
  0.3333222007698211  0.9166770668236666  0.4611358956743672   F   F   F
  0.5833222007698211  0.1666770668236666  0.4611358956743672   F   F   F
  0.5833222007698211  0.4166770668236666  0.4611358956743672   F   F   F
  0.5833222007698211  0.6666770668236666  0.4611358956743672   F   F   F
  0.5833222007698211  0.9166770668236666  0.4611358956743672   F   F   F
  0.8333222007698211  0.1666770668236666  0.4611358956743672   F   F   F
  0.8333222007698211  0.4166770668236666  0.4611358956743672   F   F   F
  0.8333222007698211  0.6666770668236666  0.4611358956743672   F   F   F
  0.8333222007698211  0.9166770668236666  0.4611358956743672   F   F   F
  0.1666768765361368  0.0833222886438278  0.5236358963144099   F   F   F
  0.1666768765361368  0.3333222886438278  0.5236358963144099   F   F   F
  0.1666768765361368  0.5833222886438278  0.5236358963144099   F   F   F
  0.1666768765361368  0.8333222886438278  0.5236358963144099   F   F   F
  0.4166768765361368  0.0833222886438278  0.5236358963144099   F   F   F
  0.4166768765361368  0.3333222886438278  0.5236358963144099   F   F   F
  0.4166768765361368  0.5833222886438278  0.5236358963144099   F   F   F
  0.4166768765361368  0.8333222886438278  0.5236358963144099   F   F   F
  0.6666768765361368  0.0833222886438278  0.5236358963144099   F   F   F
  0.6666768765361368  0.3333222886438278  0.5236358963144099   F   F   F
  0.6666768765361368  0.5833222886438278  0.5236358963144099   F   F   F
  0.6666768765361368  0.8333222886438278  0.5236358963144099   F   F   F
  0.9166768765361368  0.0833222886438278  0.5236358963144099   F   F   F
  0.9166768765361368  0.3333222886438278  0.5236358963144099   F   F   F
  0.9166768765361368  0.5833222886438278  0.5236358963144099   F   F   F
  0.9166768765361368  0.8333222886438278  0.5236358963144099   F   F   F
  0.0829634093190847  0.1675310710410045  0.5867846246952695   T   T   T
  0.0838606794633492  0.4171962475733011  0.5870100346194391   T   T   T
  0.0846689427584053  0.6691754758392179  0.5879201593286396   T   T   T
  0.0832494015356886  0.9167573339550401  0.5866341638128318   T   T   T
  0.3338560966630908  0.1683470577117845  0.5876239019289713   T   T   T
  0.3315865347142477  0.4163180079533220  0.5879869371284769   T   T   T
  0.3323710752604327  0.6676256969207373  0.5872756833725603   T   T   T
  0.3307631327121996  0.9153163879328048  0.5879380663608771   T   T   T
  0.5839661849634012  0.1672602767695395  0.5878314352399414   T   T   T
  0.5833454310011632  0.4167739325038369  0.5866827567639277   T   T   T
  0.5836616542307524  0.6684855046299845  0.5879442015116894   T   T   T
  0.5827569093145613  0.9162061331950255  0.5869887480780847   T   T   T
  0.8331609201623422  0.1668274543980317  0.5873281022396597   T   T   T
  0.8329072261655099  0.4161547257474325  0.5878041130196507   T   T   T
  0.8317051188915272  0.6662277496210152  0.5876531258562636   T   T   T
  0.8326251320744049  0.9171732621431232  0.5867927552426337   T   T   T
  0.1660679464272974  0.0832435984749509  0.6503077232393295   T   T   T
  0.1598938289536278  0.3268731126436464  0.6531524686502834   T   T   T
  0.1654231227103793  0.5816310526135027  0.6523466063812648   T   T   T
  0.1607445007113881  0.8391041645263542  0.6548971489022293   T   T   T
  0.4165021229272767  0.0849455882855139  0.6529038937072400   T   T   T
  0.4241342403915880  0.3400378224425182  0.6521803704647766   T   T   T
  0.4165862717250732  0.5834313653128120  0.6527512531988364   T   T   T
  0.4184844666409191  0.8348071797583785  0.6523361504199272   T   T   T
  0.6653517283948815  0.0800202557468808  0.6524842565622606   T   T   T
  0.6628159431896918  0.3377073412549265  0.6523568232965999   T   T   T
  0.6599076271304156  0.5761860181569531  0.6521479476526792   T   T   T
  0.6731939039912405  0.8401611734126391  0.6530061298934910   T   T   T
  0.9174282684919177  0.0829114274633511  0.6510431097003675   T   T   T
  0.9197310722302205  0.3343836504454458  0.6524386606653465   T   T   T
  0.9152096261583438  0.5836652817030696  0.6529080614177474   T   T   T
  0.9169261994457614  0.8341105320088502  0.6504111861515653   T   T   T
  0.0833225000000013  0.1666774999999987  0.3114693200000005   F   F   F
  0.0833225000000013  0.4166774999999987  0.3114693200000005   F   F   F
  0.0833225000000013  0.6666774999999987  0.3114693200000005   F   F   F
  0.0833225000000013  0.9166774999999987  0.3114693200000005   F   F   F
  0.3333225000000013  0.1666774999999987  0.3114693200000005   F   F   F
  0.3333225000000013  0.4166774999999987  0.3114693200000005   F   F   F
  0.3333225000000013  0.6666774999999987  0.3114693200000005   F   F   F
  0.3333225000000013  0.9166774999999987  0.3114693200000005   F   F   F
  0.5833225000000013  0.1666774999999987  0.3114693200000005   F   F   F
  0.5833225000000013  0.4166774999999987  0.3114693200000005   F   F   F
  0.5833225000000013  0.6666774999999987  0.3114693200000005   F   F   F
  0.5833225000000013  0.9166774999999987  0.3114693200000005   F   F   F
  0.8333225000000013  0.1666774999999987  0.3114693200000005   F   F   F
  0.8333225000000013  0.4166774999999987  0.3114693200000005   F   F   F
  0.8333225000000013  0.6666774999999987  0.3114693200000005   F   F   F
  0.8333225000000013  0.9166774999999987  0.3114693200000005   F   F   F
  0.5838372074106175  0.4173878316168853  0.7138141429018035   T   T   T
 
  0.00000000E+00  0.00000000E+00  0.00000000E+00
  0.00000000E+00  0.00000000E+00  0.00000000E+00
  0.00000000E+00  0.00000000E+00  0.00000000E+00
  0.00000000E+00  0.00000000E+00  0.00000000E+00
  0.00000000E+00  0.00000000E+00  0.00000000E+00
  0.00000000E+00  0.00000000E+00  0.00000000E+00
  0.00000000E+00  0.00000000E+00  0.00000000E+00
  0.00000000E+00  0.00000000E+00  0.00000000E+00
  0.00000000E+00  0.00000000E+00  0.00000000E+00
  0.00000000E+00  0.00000000E+00  0.00000000E+00
  0.00000000E+00  0.00000000E+00  0.00000000E+00
  0.00000000E+00  0.00000000E+00  0.00000000E+00
  0.00000000E+00  0.00000000E+00  0.00000000E+00
  0.00000000E+00  0.00000000E+00  0.00000000E+00
  0.00000000E+00  0.00000000E+00  0.00000000E+00
  0.00000000E+00  0.00000000E+00  0.00000000E+00
  0.00000000E+00  0.00000000E+00  0.00000000E+00
  0.00000000E+00  0.00000000E+00  0.00000000E+00
  0.00000000E+00  0.00000000E+00  0.00000000E+00
  0.00000000E+00  0.00000000E+00  0.00000000E+00
  0.00000000E+00  0.00000000E+00  0.00000000E+00
  0.00000000E+00  0.00000000E+00  0.00000000E+00
  0.00000000E+00  0.00000000E+00  0.00000000E+00
  0.00000000E+00  0.00000000E+00  0.00000000E+00
  0.00000000E+00  0.00000000E+00  0.00000000E+00
  0.00000000E+00  0.00000000E+00  0.00000000E+00
  0.00000000E+00  0.00000000E+00  0.00000000E+00
  0.00000000E+00  0.00000000E+00  0.00000000E+00
  0.00000000E+00  0.00000000E+00  0.00000000E+00
  0.00000000E+00  0.00000000E+00  0.00000000E+00
  0.00000000E+00  0.00000000E+00  0.00000000E+00
  0.00000000E+00  0.00000000E+00  0.00000000E+00
  0.00000000E+00  0.00000000E+00  0.00000000E+00
  0.00000000E+00  0.00000000E+00  0.00000000E+00
  0.00000000E+00  0.00000000E+00  0.00000000E+00
  0.00000000E+00  0.00000000E+00  0.00000000E+00
  0.00000000E+00  0.00000000E+00  0.00000000E+00
  0.00000000E+00  0.00000000E+00  0.00000000E+00
  0.00000000E+00  0.00000000E+00  0.00000000E+00
  0.00000000E+00  0.00000000E+00  0.00000000E+00
  0.00000000E+00  0.00000000E+00  0.00000000E+00
  0.00000000E+00  0.00000000E+00  0.00000000E+00
  0.00000000E+00  0.00000000E+00  0.00000000E+00
  0.00000000E+00  0.00000000E+00  0.00000000E+00
  0.00000000E+00  0.00000000E+00  0.00000000E+00
  0.00000000E+00  0.00000000E+00  0.00000000E+00
  0.00000000E+00  0.00000000E+00  0.00000000E+00
  0.00000000E+00  0.00000000E+00  0.00000000E+00
  0.00000000E+00  0.00000000E+00  0.00000000E+00
  0.00000000E+00  0.00000000E+00  0.00000000E+00
  0.00000000E+00  0.00000000E+00  0.00000000E+00
  0.00000000E+00  0.00000000E+00  0.00000000E+00
  0.00000000E+00  0.00000000E+00  0.00000000E+00
  0.00000000E+00  0.00000000E+00  0.00000000E+00
  0.00000000E+00  0.00000000E+00  0.00000000E+00
  0.00000000E+00  0.00000000E+00  0.00000000E+00
  0.00000000E+00  0.00000000E+00  0.00000000E+00
  0.00000000E+00  0.00000000E+00  0.00000000E+00
  0.00000000E+00  0.00000000E+00  0.00000000E+00
  0.00000000E+00  0.00000000E+00  0.00000000E+00
  0.00000000E+00  0.00000000E+00  0.00000000E+00
  0.00000000E+00  0.00000000E+00  0.00000000E+00
  0.00000000E+00  0.00000000E+00  0.00000000E+00
  0.00000000E+00  0.00000000E+00  0.00000000E+00
  0.00000000E+00  0.00000000E+00  0.00000000E+00
  0.00000000E+00  0.00000000E+00  0.00000000E+00
  0.00000000E+00  0.00000000E+00  0.00000000E+00
  0.00000000E+00  0.00000000E+00  0.00000000E+00
  0.00000000E+00  0.00000000E+00  0.00000000E+00
  0.00000000E+00  0.00000000E+00  0.00000000E+00
  0.00000000E+00  0.00000000E+00  0.00000000E+00
  0.00000000E+00  0.00000000E+00  0.00000000E+00
  0.00000000E+00  0.00000000E+00  0.00000000E+00
  0.00000000E+00  0.00000000E+00  0.00000000E+00
  0.00000000E+00  0.00000000E+00  0.00000000E+00
  0.00000000E+00  0.00000000E+00  0.00000000E+00
  0.00000000E+00  0.00000000E+00  0.00000000E+00
  0.00000000E+00  0.00000000E+00  0.00000000E+00
  0.00000000E+00  0.00000000E+00  0.00000000E+00
  0.00000000E+00  0.00000000E+00  0.00000000E+00
  0.00000000E+00  0.00000000E+00  0.00000000E+00
  0.00000000E+00  0.00000000E+00  0.00000000E+00
  0.00000000E+00  0.00000000E+00  0.00000000E+00
  0.00000000E+00  0.00000000E+00  0.00000000E+00
  0.00000000E+00  0.00000000E+00  0.00000000E+00
  0.00000000E+00  0.00000000E+00  0.00000000E+00
  0.00000000E+00  0.00000000E+00  0.00000000E+00
  0.00000000E+00  0.00000000E+00  0.00000000E+00
  0.00000000E+00  0.00000000E+00  0.00000000E+00
  0.00000000E+00  0.00000000E+00  0.00000000E+00
  0.00000000E+00  0.00000000E+00  0.00000000E+00
  0.00000000E+00  0.00000000E+00  0.00000000E+00
  0.00000000E+00  0.00000000E+00  0.00000000E+00
  0.00000000E+00  0.00000000E+00  0.00000000E+00
  0.00000000E+00  0.00000000E+00  0.00000000E+00
  0.00000000E+00  0.00000000E+00  0.00000000E+00
  0.00000000E+00  0.00000000E+00  0.00000000E+00
  0.00000000E+00  0.00000000E+00  0.00000000E+00
  0.00000000E+00  0.00000000E+00  0.00000000E+00
  0.00000000E+00  0.00000000E+00  0.00000000E+00
  0.00000000E+00  0.00000000E+00  0.00000000E+00
  0.00000000E+00  0.00000000E+00  0.00000000E+00
  0.00000000E+00  0.00000000E+00  0.00000000E+00
  0.00000000E+00  0.00000000E+00  0.00000000E+00
  0.00000000E+00  0.00000000E+00  0.00000000E+00
  0.00000000E+00  0.00000000E+00  0.00000000E+00
  0.00000000E+00  0.00000000E+00  0.00000000E+00
  0.00000000E+00  0.00000000E+00  0.00000000E+00
  0.00000000E+00  0.00000000E+00  0.00000000E+00
  0.00000000E+00  0.00000000E+00  0.00000000E+00
  0.00000000E+00  0.00000000E+00  0.00000000E+00
  0.00000000E+00  0.00000000E+00  0.00000000E+00
  0.00000000E+00  0.00000000E+00  0.00000000E+00
  0.00000000E+00  0.00000000E+00  0.00000000E+00
  0.00000000E+00  0.00000000E+00  0.00000000E+00
  0.00000000E+00  0.00000000E+00  0.00000000E+00
  0.00000000E+00  0.00000000E+00  0.00000000E+00
  0.00000000E+00  0.00000000E+00  0.00000000E+00
  0.00000000E+00  0.00000000E+00  0.00000000E+00
  0.00000000E+00  0.00000000E+00  0.00000000E+00
  0.00000000E+00  0.00000000E+00  0.00000000E+00
  0.00000000E+00  0.00000000E+00  0.00000000E+00
  0.00000000E+00  0.00000000E+00  0.00000000E+00
  0.00000000E+00  0.00000000E+00  0.00000000E+00
  0.00000000E+00  0.00000000E+00  0.00000000E+00
  0.00000000E+00  0.00000000E+00  0.00000000E+00
  0.00000000E+00  0.00000000E+00  0.00000000E+00
  0.00000000E+00  0.00000000E+00  0.00000000E+00
  0.00000000E+00  0.00000000E+00  0.00000000E+00
  0.00000000E+00  0.00000000E+00  0.00000000E+00
  0.00000000E+00  0.00000000E+00  0.00000000E+00
  0.00000000E+00  0.00000000E+00  0.00000000E+00
  0.00000000E+00  0.00000000E+00  0.00000000E+00
  0.00000000E+00  0.00000000E+00  0.00000000E+00
  0.00000000E+00  0.00000000E+00  0.00000000E+00
  0.00000000E+00  0.00000000E+00  0.00000000E+00
  0.00000000E+00  0.00000000E+00  0.00000000E+00
  0.00000000E+00  0.00000000E+00  0.00000000E+00
  0.00000000E+00  0.00000000E+00  0.00000000E+00
  0.00000000E+00  0.00000000E+00  0.00000000E+00
  0.00000000E+00  0.00000000E+00  0.00000000E+00
  0.00000000E+00  0.00000000E+00  0.00000000E+00
  0.00000000E+00  0.00000000E+00  0.00000000E+00
  0.00000000E+00  0.00000000E+00  0.00000000E+00
  0.00000000E+00  0.00000000E+00  0.00000000E+00
  0.00000000E+00  0.00000000E+00  0.00000000E+00
  0.00000000E+00  0.00000000E+00  0.00000000E+00
  0.00000000E+00  0.00000000E+00  0.00000000E+00
  0.00000000E+00  0.00000000E+00  0.00000000E+00
  0.00000000E+00  0.00000000E+00  0.00000000E+00
  0.00000000E+00  0.00000000E+00  0.00000000E+00
  0.00000000E+00  0.00000000E+00  0.00000000E+00
  0.00000000E+00  0.00000000E+00  0.00000000E+00
  0.00000000E+00  0.00000000E+00  0.00000000E+00
  0.00000000E+00  0.00000000E+00  0.00000000E+00
  0.00000000E+00  0.00000000E+00  0.00000000E+00
  0.00000000E+00  0.00000000E+00  0.00000000E+00
  0.00000000E+00  0.00000000E+00  0.00000000E+00
  0.00000000E+00  0.00000000E+00  0.00000000E+00
  0.00000000E+00  0.00000000E+00  0.00000000E+00
  0.00000000E+00  0.00000000E+00  0.00000000E+00
  0.00000000E+00  0.00000000E+00  0.00000000E+00
  0.00000000E+00  0.00000000E+00  0.00000000E+00
  0.00000000E+00  0.00000000E+00  0.00000000E+00
  0.00000000E+00  0.00000000E+00  0.00000000E+00
  0.00000000E+00  0.00000000E+00  0.00000000E+00
  0.00000000E+00  0.00000000E+00  0.00000000E+00
  0.00000000E+00  0.00000000E+00  0.00000000E+00
  0.00000000E+00  0.00000000E+00  0.00000000E+00
  0.00000000E+00  0.00000000E+00  0.00000000E+00
  0.00000000E+00  0.00000000E+00  0.00000000E+00
  0.00000000E+00  0.00000000E+00  0.00000000E+00
  0.00000000E+00  0.00000000E+00  0.00000000E+00
  0.00000000E+00  0.00000000E+00  0.00000000E+00
  0.00000000E+00  0.00000000E+00  0.00000000E+00
  0.00000000E+00  0.00000000E+00  0.00000000E+00
  0.00000000E+00  0.00000000E+00  0.00000000E+00
  0.00000000E+00  0.00000000E+00  0.00000000E+00
  0.00000000E+00  0.00000000E+00  0.00000000E+00
  0.00000000E+00  0.00000000E+00  0.00000000E+00
  0.00000000E+00  0.00000000E+00  0.00000000E+00
  0.00000000E+00  0.00000000E+00  0.00000000E+00
  0.00000000E+00  0.00000000E+00  0.00000000E+00
  0.00000000E+00  0.00000000E+00  0.00000000E+00
  0.00000000E+00  0.00000000E+00  0.00000000E+00
  0.00000000E+00  0.00000000E+00  0.00000000E+00
  0.00000000E+00  0.00000000E+00  0.00000000E+00
  0.00000000E+00  0.00000000E+00  0.00000000E+00
  0.00000000E+00  0.00000000E+00  0.00000000E+00
  0.00000000E+00  0.00000000E+00  0.00000000E+00
  0.00000000E+00  0.00000000E+00  0.00000000E+00
  0.00000000E+00  0.00000000E+00  0.00000000E+00
  0.00000000E+00  0.00000000E+00  0.00000000E+00
  0.00000000E+00  0.00000000E+00  0.00000000E+00
  0.00000000E+00  0.00000000E+00  0.00000000E+00
  0.00000000E+00  0.00000000E+00  0.00000000E+00
  0.00000000E+00  0.00000000E+00  0.00000000E+00
  0.00000000E+00  0.00000000E+00  0.00000000E+00
  0.00000000E+00  0.00000000E+00  0.00000000E+00
  0.00000000E+00  0.00000000E+00  0.00000000E+00
  0.00000000E+00  0.00000000E+00  0.00000000E+00
  0.00000000E+00  0.00000000E+00  0.00000000E+00
  0.00000000E+00  0.00000000E+00  0.00000000E+00
  0.00000000E+00  0.00000000E+00  0.00000000E+00
  0.00000000E+00  0.00000000E+00  0.00000000E+00
  0.00000000E+00  0.00000000E+00  0.00000000E+00
  0.00000000E+00  0.00000000E+00  0.00000000E+00
  0.00000000E+00  0.00000000E+00  0.00000000E+00
  0.00000000E+00  0.00000000E+00  0.00000000E+00
