Zn96 H18 Pt4 O96                        
    1.000000000000000     
    12.9159910000000000    0.0000000000000000    0.0000000000000000
    -6.4575310000000004   11.1858439999999995    0.0000000000000000
     0.0000000000000000    0.0000000000000000   41.8715669999999989
   Zn   O    H    Pt   O    H 
    96    95    16     4     1     2
Selective dynamics
Direct
  0.0859811873295797  0.1672287681536417  0.4127404315655667   T   T   T
  0.0808969932152195  0.4184924968322576  0.4124970725135810   T   T   T
  0.0864548961547342  0.6702821299176023  0.4118698686027216   T   T   T
  0.0824633597069564  0.9166639256534168  0.4118865390152706   T   T   T
  0.3300629885261657  0.1623945799009689  0.4140887586108377   T   T   T
  0.3343845278390347  0.4207649485796878  0.4144308376893804   T   T   T
  0.3302182487427672  0.6724912878237532  0.4128883292497676   T   T   T
  0.3298033849598028  0.9139538412805948  0.4119835691721008   T   T   T
  0.5694307437060218  0.1486355760351472  0.4157156839750158   T   T   T
  0.5912118490198282  0.4111619202434440  0.4136161005582366   T   T   T
  0.5833515045310094  0.6730205082591212  0.4139786964177361   T   T   T
  0.5864817215396911  0.9218979680709438  0.4104878749921426   T   T   T
  0.8355985760130267  0.1671350577331125  0.4138864414427417   T   T   T
  0.8479890385077269  0.4264174652001316  0.4149385159267425   T   T   T
  0.8396145389779051  0.6715282467059325  0.4139228145741356   T   T   T
  0.8295796661445110  0.9088080617888821  0.4128869628166214   T   T   T
  0.1798912637274626  0.0728354789254979  0.3464124002141489   T   T   T
  0.1853300458559701  0.3703438961602998  0.3506488938678771   T   T   T
  0.1627902637683931  0.5907681192048813  0.3441239135217060   T   T   T
  0.1648118907068721  0.8315947363881975  0.3441237095776444   T   T   T
  0.4291010621865539  0.0847728304352415  0.3476672738238520   T   T   T
  0.4261443594179326  0.3367018574156262  0.3560845147555298   T   T   T
  0.4088407849051521  0.6003763164478357  0.3524089897521776   T   T   T
  0.4116023178045651  0.8384635058576890  0.3451122397196613   T   T   T
  0.6722001339320727  0.0729458031170083  0.3293238440127908   T   T   T
  0.7212538239587403  0.2601832851229062  0.3703004666348022   T   T   T
  0.6665370405035347  0.5787202148619244  0.3563769661304903   T   T   T
  0.6578398564555101  0.8250912630380256  0.3430278504960071   T   T   T
  0.8718486862486259  0.0528951634025461  0.3531580666970981   T   T   T
  0.9302044190304315  0.3288933708429411  0.3411862515547313   T   T   T
  0.9129651663043603  0.5706614405750443  0.3483375703727205   T   T   T
  0.9199327874637930  0.8366321814539646  0.3444162065943530   T   T   T
  0.0833420000000018  0.1666570000000007  0.5388639999999967   F   F   F
  0.0833420000000018  0.4166570000000007  0.5388639999999967   F   F   F
  0.0833420000000018  0.6666570000000007  0.5388639999999967   F   F   F
  0.0833420000000018  0.9166570000000007  0.5388639999999967   F   F   F
  0.3333420000000018  0.1666570000000007  0.5388639999999967   F   F   F
  0.3333420000000018  0.4166570000000007  0.5388639999999967   F   F   F
  0.3333420000000018  0.6666570000000007  0.5388639999999967   F   F   F
  0.3333420000000018  0.9166570000000007  0.5388639999999967   F   F   F
  0.5833420000000018  0.1666570000000007  0.5388639999999967   F   F   F
  0.5833420000000018  0.4166570000000007  0.5388639999999967   F   F   F
  0.5833420000000018  0.6666570000000007  0.5388639999999967   F   F   F
  0.5833420000000018  0.9166570000000007  0.5388639999999967   F   F   F
  0.8333420000000018  0.1666570000000007  0.5388639999999967   F   F   F
  0.8333420000000018  0.4166570000000007  0.5388639999999967   F   F   F
  0.8333420000000018  0.6666570000000007  0.5388639999999967   F   F   F
  0.8333420000000018  0.9166570000000007  0.5388639999999967   F   F   F
  0.1666570000000007  0.0833420000000018  0.4763639999999967   F   F   F
  0.1666570000000007  0.3333420000000018  0.4763639999999967   F   F   F
  0.1666570000000007  0.5833420000000018  0.4763639999999967   F   F   F
  0.1666570000000007  0.8333420000000018  0.4763639999999967   F   F   F
  0.4166570000000007  0.0833420000000018  0.4763639999999967   F   F   F
  0.4166570000000007  0.3333420000000018  0.4763639999999967   F   F   F
  0.4166570000000007  0.5833420000000018  0.4763639999999967   F   F   F
  0.4166570000000007  0.8333420000000018  0.4763639999999967   F   F   F
  0.6666570000000007  0.0833420000000018  0.4763639999999967   F   F   F
  0.6666570000000007  0.3333420000000018  0.4763639999999967   F   F   F
  0.6666570000000007  0.5833420000000018  0.4763639999999967   F   F   F
  0.6666570000000007  0.8333420000000018  0.4763639999999967   F   F   F
  0.9166570000000007  0.0833420000000018  0.4763639999999967   F   F   F
  0.9166570000000007  0.3333420000000018  0.4763639999999967   F   F   F
  0.9166570000000007  0.5833420000000018  0.4763639999999967   F   F   F
  0.9166570000000007  0.8333420000000018  0.4763639999999967   F   F   F
  0.0833420000000018  0.1666570000000007  0.6638639999999967   F   F   F
  0.0833420000000018  0.4166570000000007  0.6638639999999967   F   F   F
  0.0833420000000018  0.6666570000000007  0.6638639999999967   F   F   F
  0.0833420000000018  0.9166570000000007  0.6638639999999967   F   F   F
  0.3333420000000018  0.1666570000000007  0.6638639999999967   F   F   F
  0.3333420000000018  0.4166570000000007  0.6638639999999967   F   F   F
  0.3333420000000018  0.6666570000000007  0.6638639999999967   F   F   F
  0.3333420000000018  0.9166570000000007  0.6638639999999967   F   F   F
  0.5833420000000018  0.1666570000000007  0.6638639999999967   F   F   F
  0.5833420000000018  0.4166570000000007  0.6638639999999967   F   F   F
  0.5833420000000018  0.6666570000000007  0.6638639999999967   F   F   F
  0.5833420000000018  0.9166570000000007  0.6638639999999967   F   F   F
  0.8333420000000018  0.1666570000000007  0.6638639999999967   F   F   F
  0.8333420000000018  0.4166570000000007  0.6638639999999967   F   F   F
  0.8333420000000018  0.6666570000000007  0.6638639999999967   F   F   F
  0.8333420000000018  0.9166570000000007  0.6638639999999967   F   F   F
  0.1666570000000007  0.0833420000000018  0.6013639999999967   F   F   F
  0.1666570000000007  0.3333420000000018  0.6013639999999967   F   F   F
  0.1666570000000007  0.5833420000000018  0.6013639999999967   F   F   F
  0.1666570000000007  0.8333420000000018  0.6013639999999967   F   F   F
  0.4166570000000007  0.0833420000000018  0.6013639999999967   F   F   F
  0.4166570000000007  0.3333420000000018  0.6013639999999967   F   F   F
  0.4166570000000007  0.5833420000000018  0.6013639999999967   F   F   F
  0.4166570000000007  0.8333420000000018  0.6013639999999967   F   F   F
  0.6666570000000007  0.0833420000000018  0.6013639999999967   F   F   F
  0.6666570000000007  0.3333420000000018  0.6013639999999967   F   F   F
  0.6666570000000007  0.5833420000000018  0.6013639999999967   F   F   F
  0.6666570000000007  0.8333420000000018  0.6013639999999967   F   F   F
  0.9166570000000007  0.0833420000000018  0.6013639999999967   F   F   F
  0.9166570000000007  0.3333420000000018  0.6013639999999967   F   F   F
  0.9166570000000007  0.5833420000000018  0.6013639999999967   F   F   F
  0.9166570000000007  0.8333420000000018  0.6013639999999967   F   F   F
  0.0914022230866749  0.4232181987695540  0.3303780203388769   T   T   T
  0.0711835012700845  0.6647847479395210  0.3340875618400858   T   T   T
  0.0826124709029585  0.9180871992681716  0.3311453716578114   T   T   T
  0.3518799213343726  0.1828666175842955  0.3296623791605811   T   T   T
  0.3506648016765013  0.4261883070172203  0.3352584978976410   T   T   T
  0.3293165157940336  0.6718644346786320  0.3343240704291190   T   T   T
  0.3327447776111896  0.9262303920034043  0.3342223411730600   T   T   T
  0.6008205034362248  0.1803526742157189  0.3333208159633330   T   T   T
  0.6067313630444815  0.3937975332303125  0.3551213916604539   T   T   T
  0.5723820176316750  0.6480774727195353  0.3350562359855189   T   T   T
  0.5764759328884637  0.9091161519864670  0.3309770958203089   T   T   T
  0.8433265145686732  0.1628651046456540  0.3295742144407683   T   T   T
  0.8158003145835835  0.3958594981220571  0.3363632487492012   T   T   T
  0.8181988591562828  0.6486195767165128  0.3296384156708925   T   T   T
  0.8258122604764822  0.9065512831473299  0.3325346996640377   T   T   T
  0.1696314329045947  0.0877348076275126  0.3934396657346610   T   T   T
  0.1686045387716177  0.3344795402685179  0.3962587646028624   T   T   T
  0.1648605338256885  0.5821491422987606  0.3963322956052338   T   T   T
  0.1654072675883640  0.8354466169061325  0.3960975456640980   T   T   T
  0.4143637002831966  0.0849050525472279  0.3956182792754817   T   T   T
  0.4176576030397001  0.3336530759576135  0.4016007198004203   T   T   T
  0.4161245066957733  0.5857592576644777  0.3989578669373515   T   T   T
  0.4192754021373162  0.8378130281678295  0.3965305736828313   T   T   T
  0.6734044244559740  0.0944452860754978  0.3944924698721621   T   T   T
  0.6749218905377177  0.3229781669877809  0.4064415831683021   T   T   T
  0.6670198675087633  0.5839438254531260  0.4018115076188806   T   T   T
  0.6660744530139766  0.8337629040231604  0.3945040576991232   T   T   T
  0.9175986365943913  0.0813287976559636  0.3978470279272983   T   T   T
  0.9131183246212728  0.3301052945062182  0.3934451006957644   T   T   T
  0.9156000981242514  0.5843681408236776  0.3962777524640089   T   T   T
  0.9163123698238422  0.8319944083651549  0.3944912745895337   T   T   T
  0.0833220000000026  0.1666770000000000  0.4611360000000033   F   F   F
  0.0833220000000026  0.4166770000000000  0.4611360000000033   F   F   F
  0.0833220000000026  0.6666770000000000  0.4611360000000033   F   F   F
  0.0833220000000026  0.9166770000000000  0.4611360000000033   F   F   F
  0.3333220000000026  0.1666770000000000  0.4611360000000033   F   F   F
  0.3333220000000026  0.4166770000000000  0.4611360000000033   F   F   F
  0.3333220000000026  0.6666770000000000  0.4611360000000033   F   F   F
  0.3333220000000026  0.9166770000000000  0.4611360000000033   F   F   F
  0.5833220000000026  0.1666770000000000  0.4611360000000033   F   F   F
  0.5833220000000026  0.4166770000000000  0.4611360000000033   F   F   F
  0.5833220000000026  0.6666770000000000  0.4611360000000033   F   F   F
  0.5833220000000026  0.9166770000000000  0.4611360000000033   F   F   F
  0.8333220000000026  0.1666770000000000  0.4611360000000033   F   F   F
  0.8333220000000026  0.4166770000000000  0.4611360000000033   F   F   F
  0.8333220000000026  0.6666770000000000  0.4611360000000033   F   F   F
  0.8333220000000026  0.9166770000000000  0.4611360000000033   F   F   F
  0.1666770000000000  0.0833220000000026  0.5236360000000033   F   F   F
  0.1666770000000000  0.3333220000000026  0.5236360000000033   F   F   F
  0.1666770000000000  0.5833220000000026  0.5236360000000033   F   F   F
  0.1666770000000000  0.8333220000000026  0.5236360000000033   F   F   F
  0.4166770000000000  0.0833220000000026  0.5236360000000033   F   F   F
  0.4166770000000000  0.3333220000000026  0.5236360000000033   F   F   F
  0.4166770000000000  0.5833220000000026  0.5236360000000033   F   F   F
  0.4166770000000000  0.8333220000000026  0.5236360000000033   F   F   F
  0.6666770000000000  0.0833220000000026  0.5236360000000033   F   F   F
  0.6666770000000000  0.3333220000000026  0.5236360000000033   F   F   F
  0.6666770000000000  0.5833220000000026  0.5236360000000033   F   F   F
  0.6666770000000000  0.8333220000000026  0.5236360000000033   F   F   F
  0.9166770000000000  0.0833220000000026  0.5236360000000033   F   F   F
  0.9166770000000000  0.3333220000000026  0.5236360000000033   F   F   F
  0.9166770000000000  0.5833220000000026  0.5236360000000033   F   F   F
  0.9166770000000000  0.8333220000000026  0.5236360000000033   F   F   F
  0.0833220000000026  0.1666770000000000  0.5861360000000033   F   F   F
  0.0833220000000026  0.4166770000000000  0.5861360000000033   F   F   F
  0.0833220000000026  0.6666770000000000  0.5861360000000033   F   F   F
  0.0833220000000026  0.9166770000000000  0.5861360000000033   F   F   F
  0.3333220000000026  0.1666770000000000  0.5861360000000033   F   F   F
  0.3333220000000026  0.4166770000000000  0.5861360000000033   F   F   F
  0.3333220000000026  0.6666770000000000  0.5861360000000033   F   F   F
  0.3333220000000026  0.9166770000000000  0.5861360000000033   F   F   F
  0.5833220000000026  0.1666770000000000  0.5861360000000033   F   F   F
  0.5833220000000026  0.4166770000000000  0.5861360000000033   F   F   F
  0.5833220000000026  0.6666770000000000  0.5861360000000033   F   F   F
  0.5833220000000026  0.9166770000000000  0.5861360000000033   F   F   F
  0.8333220000000026  0.1666770000000000  0.5861360000000033   F   F   F
  0.8333220000000026  0.4166770000000000  0.5861360000000033   F   F   F
  0.8333220000000026  0.6666770000000000  0.5861360000000033   F   F   F
  0.8333220000000026  0.9166770000000000  0.5861360000000033   F   F   F
  0.1666770000000000  0.0833220000000026  0.6486360000000033   F   F   F
  0.1666770000000000  0.3333220000000026  0.6486360000000033   F   F   F
  0.1666770000000000  0.5833220000000026  0.6486360000000033   F   F   F
  0.1666770000000000  0.8333220000000026  0.6486360000000033   F   F   F
  0.4166770000000000  0.0833220000000026  0.6486360000000033   F   F   F
  0.4166770000000000  0.3333220000000026  0.6486360000000033   F   F   F
  0.4166770000000000  0.5833220000000026  0.6486360000000033   F   F   F
  0.4166770000000000  0.8333220000000026  0.6486360000000033   F   F   F
  0.6666770000000000  0.0833220000000026  0.6486360000000033   F   F   F
  0.6666770000000000  0.3333220000000026  0.6486360000000033   F   F   F
  0.6666770000000000  0.5833220000000026  0.6486360000000033   F   F   F
  0.6666770000000000  0.8333220000000026  0.6486360000000033   F   F   F
  0.9166770000000000  0.0833220000000026  0.6486360000000033   F   F   F
  0.9166770000000000  0.3333220000000026  0.6486360000000033   F   F   F
  0.9166770000000000  0.5833220000000026  0.6486360000000033   F   F   F
  0.9166770000000000  0.8333220000000026  0.6486360000000033   F   F   F
  0.0833420000000018  0.1666579999999982  0.7015940000000001   F   F   F
  0.0833420000000018  0.4166579999999982  0.7015940000000001   F   F   F
  0.0833420000000018  0.6666579999999982  0.7015940000000001   F   F   F
  0.0833420000000018  0.9166579999999982  0.7015940000000001   F   F   F
  0.3333420000000018  0.1666579999999982  0.7015940000000001   F   F   F
  0.3333420000000018  0.4166579999999982  0.7015940000000001   F   F   F
  0.3333420000000018  0.6666579999999982  0.7015940000000001   F   F   F
  0.3333420000000018  0.9166579999999982  0.7015940000000001   F   F   F
  0.5833420000000018  0.1666579999999982  0.7015940000000001   F   F   F
  0.5833420000000018  0.4166579999999982  0.7015940000000001   F   F   F
  0.5833420000000018  0.6666579999999982  0.7015940000000001   F   F   F
  0.5833420000000018  0.9166579999999982  0.7015940000000001   F   F   F
  0.8333420000000018  0.1666579999999982  0.7015940000000001   F   F   F
  0.8333420000000018  0.4166579999999982  0.7015940000000001   F   F   F
  0.8333420000000018  0.6666579999999982  0.7015940000000001   F   F   F
  0.8333420000000018  0.9166579999999982  0.7015940000000001   F   F   F
  0.7205150448401909  0.5549192544114447  0.2928939020452788   T   T   T
  0.5078110274151726  0.4935374284956566  0.3081943516319896   T   T   T
  0.6546992825595410  0.3488681359028263  0.3153341597038235   T   T   T
  0.4482558944912967  0.2814291466056460  0.2921535865885900   T   T   T
  0.1308735985131335  0.2002044142283665  0.3209253199633793   T   T   T
  0.0556543318258278  0.1747339091607785  0.3094379716520876   T   T   T
  0.1964095846021223  0.2462333780343471  0.3058782846121986   T   T   T
 
  0.00000000E+00  0.00000000E+00  0.00000000E+00
  0.00000000E+00  0.00000000E+00  0.00000000E+00
  0.00000000E+00  0.00000000E+00  0.00000000E+00
  0.00000000E+00  0.00000000E+00  0.00000000E+00
  0.00000000E+00  0.00000000E+00  0.00000000E+00
  0.00000000E+00  0.00000000E+00  0.00000000E+00
  0.00000000E+00  0.00000000E+00  0.00000000E+00
  0.00000000E+00  0.00000000E+00  0.00000000E+00
  0.00000000E+00  0.00000000E+00  0.00000000E+00
  0.00000000E+00  0.00000000E+00  0.00000000E+00
  0.00000000E+00  0.00000000E+00  0.00000000E+00
  0.00000000E+00  0.00000000E+00  0.00000000E+00
  0.00000000E+00  0.00000000E+00  0.00000000E+00
  0.00000000E+00  0.00000000E+00  0.00000000E+00
  0.00000000E+00  0.00000000E+00  0.00000000E+00
  0.00000000E+00  0.00000000E+00  0.00000000E+00
  0.00000000E+00  0.00000000E+00  0.00000000E+00
  0.00000000E+00  0.00000000E+00  0.00000000E+00
  0.00000000E+00  0.00000000E+00  0.00000000E+00
  0.00000000E+00  0.00000000E+00  0.00000000E+00
  0.00000000E+00  0.00000000E+00  0.00000000E+00
  0.00000000E+00  0.00000000E+00  0.00000000E+00
  0.00000000E+00  0.00000000E+00  0.00000000E+00
  0.00000000E+00  0.00000000E+00  0.00000000E+00
  0.00000000E+00  0.00000000E+00  0.00000000E+00
  0.00000000E+00  0.00000000E+00  0.00000000E+00
  0.00000000E+00  0.00000000E+00  0.00000000E+00
  0.00000000E+00  0.00000000E+00  0.00000000E+00
  0.00000000E+00  0.00000000E+00  0.00000000E+00
  0.00000000E+00  0.00000000E+00  0.00000000E+00
  0.00000000E+00  0.00000000E+00  0.00000000E+00
  0.00000000E+00  0.00000000E+00  0.00000000E+00
  0.00000000E+00  0.00000000E+00  0.00000000E+00
  0.00000000E+00  0.00000000E+00  0.00000000E+00
  0.00000000E+00  0.00000000E+00  0.00000000E+00
  0.00000000E+00  0.00000000E+00  0.00000000E+00
  0.00000000E+00  0.00000000E+00  0.00000000E+00
  0.00000000E+00  0.00000000E+00  0.00000000E+00
  0.00000000E+00  0.00000000E+00  0.00000000E+00
  0.00000000E+00  0.00000000E+00  0.00000000E+00
  0.00000000E+00  0.00000000E+00  0.00000000E+00
  0.00000000E+00  0.00000000E+00  0.00000000E+00
  0.00000000E+00  0.00000000E+00  0.00000000E+00
  0.00000000E+00  0.00000000E+00  0.00000000E+00
  0.00000000E+00  0.00000000E+00  0.00000000E+00
  0.00000000E+00  0.00000000E+00  0.00000000E+00
  0.00000000E+00  0.00000000E+00  0.00000000E+00
  0.00000000E+00  0.00000000E+00  0.00000000E+00
  0.00000000E+00  0.00000000E+00  0.00000000E+00
  0.00000000E+00  0.00000000E+00  0.00000000E+00
  0.00000000E+00  0.00000000E+00  0.00000000E+00
  0.00000000E+00  0.00000000E+00  0.00000000E+00
  0.00000000E+00  0.00000000E+00  0.00000000E+00
  0.00000000E+00  0.00000000E+00  0.00000000E+00
  0.00000000E+00  0.00000000E+00  0.00000000E+00
  0.00000000E+00  0.00000000E+00  0.00000000E+00
  0.00000000E+00  0.00000000E+00  0.00000000E+00
  0.00000000E+00  0.00000000E+00  0.00000000E+00
  0.00000000E+00  0.00000000E+00  0.00000000E+00
  0.00000000E+00  0.00000000E+00  0.00000000E+00
  0.00000000E+00  0.00000000E+00  0.00000000E+00
  0.00000000E+00  0.00000000E+00  0.00000000E+00
  0.00000000E+00  0.00000000E+00  0.00000000E+00
  0.00000000E+00  0.00000000E+00  0.00000000E+00
  0.00000000E+00  0.00000000E+00  0.00000000E+00
  0.00000000E+00  0.00000000E+00  0.00000000E+00
  0.00000000E+00  0.00000000E+00  0.00000000E+00
  0.00000000E+00  0.00000000E+00  0.00000000E+00
  0.00000000E+00  0.00000000E+00  0.00000000E+00
  0.00000000E+00  0.00000000E+00  0.00000000E+00
  0.00000000E+00  0.00000000E+00  0.00000000E+00
  0.00000000E+00  0.00000000E+00  0.00000000E+00
  0.00000000E+00  0.00000000E+00  0.00000000E+00
  0.00000000E+00  0.00000000E+00  0.00000000E+00
  0.00000000E+00  0.00000000E+00  0.00000000E+00
  0.00000000E+00  0.00000000E+00  0.00000000E+00
  0.00000000E+00  0.00000000E+00  0.00000000E+00
  0.00000000E+00  0.00000000E+00  0.00000000E+00
  0.00000000E+00  0.00000000E+00  0.00000000E+00
  0.00000000E+00  0.00000000E+00  0.00000000E+00
  0.00000000E+00  0.00000000E+00  0.00000000E+00
  0.00000000E+00  0.00000000E+00  0.00000000E+00
  0.00000000E+00  0.00000000E+00  0.00000000E+00
  0.00000000E+00  0.00000000E+00  0.00000000E+00
  0.00000000E+00  0.00000000E+00  0.00000000E+00
  0.00000000E+00  0.00000000E+00  0.00000000E+00
  0.00000000E+00  0.00000000E+00  0.00000000E+00
  0.00000000E+00  0.00000000E+00  0.00000000E+00
  0.00000000E+00  0.00000000E+00  0.00000000E+00
  0.00000000E+00  0.00000000E+00  0.00000000E+00
  0.00000000E+00  0.00000000E+00  0.00000000E+00
  0.00000000E+00  0.00000000E+00  0.00000000E+00
  0.00000000E+00  0.00000000E+00  0.00000000E+00
  0.00000000E+00  0.00000000E+00  0.00000000E+00
  0.00000000E+00  0.00000000E+00  0.00000000E+00
  0.00000000E+00  0.00000000E+00  0.00000000E+00
  0.00000000E+00  0.00000000E+00  0.00000000E+00
  0.00000000E+00  0.00000000E+00  0.00000000E+00
  0.00000000E+00  0.00000000E+00  0.00000000E+00
  0.00000000E+00  0.00000000E+00  0.00000000E+00
  0.00000000E+00  0.00000000E+00  0.00000000E+00
  0.00000000E+00  0.00000000E+00  0.00000000E+00
  0.00000000E+00  0.00000000E+00  0.00000000E+00
  0.00000000E+00  0.00000000E+00  0.00000000E+00
  0.00000000E+00  0.00000000E+00  0.00000000E+00
  0.00000000E+00  0.00000000E+00  0.00000000E+00
  0.00000000E+00  0.00000000E+00  0.00000000E+00
  0.00000000E+00  0.00000000E+00  0.00000000E+00
  0.00000000E+00  0.00000000E+00  0.00000000E+00
  0.00000000E+00  0.00000000E+00  0.00000000E+00
  0.00000000E+00  0.00000000E+00  0.00000000E+00
  0.00000000E+00  0.00000000E+00  0.00000000E+00
  0.00000000E+00  0.00000000E+00  0.00000000E+00
  0.00000000E+00  0.00000000E+00  0.00000000E+00
  0.00000000E+00  0.00000000E+00  0.00000000E+00
  0.00000000E+00  0.00000000E+00  0.00000000E+00
  0.00000000E+00  0.00000000E+00  0.00000000E+00
  0.00000000E+00  0.00000000E+00  0.00000000E+00
  0.00000000E+00  0.00000000E+00  0.00000000E+00
  0.00000000E+00  0.00000000E+00  0.00000000E+00
  0.00000000E+00  0.00000000E+00  0.00000000E+00
  0.00000000E+00  0.00000000E+00  0.00000000E+00
  0.00000000E+00  0.00000000E+00  0.00000000E+00
  0.00000000E+00  0.00000000E+00  0.00000000E+00
  0.00000000E+00  0.00000000E+00  0.00000000E+00
  0.00000000E+00  0.00000000E+00  0.00000000E+00
  0.00000000E+00  0.00000000E+00  0.00000000E+00
  0.00000000E+00  0.00000000E+00  0.00000000E+00
  0.00000000E+00  0.00000000E+00  0.00000000E+00
  0.00000000E+00  0.00000000E+00  0.00000000E+00
  0.00000000E+00  0.00000000E+00  0.00000000E+00
  0.00000000E+00  0.00000000E+00  0.00000000E+00
  0.00000000E+00  0.00000000E+00  0.00000000E+00
  0.00000000E+00  0.00000000E+00  0.00000000E+00
  0.00000000E+00  0.00000000E+00  0.00000000E+00
  0.00000000E+00  0.00000000E+00  0.00000000E+00
  0.00000000E+00  0.00000000E+00  0.00000000E+00
  0.00000000E+00  0.00000000E+00  0.00000000E+00
  0.00000000E+00  0.00000000E+00  0.00000000E+00
  0.00000000E+00  0.00000000E+00  0.00000000E+00
  0.00000000E+00  0.00000000E+00  0.00000000E+00
  0.00000000E+00  0.00000000E+00  0.00000000E+00
  0.00000000E+00  0.00000000E+00  0.00000000E+00
  0.00000000E+00  0.00000000E+00  0.00000000E+00
  0.00000000E+00  0.00000000E+00  0.00000000E+00
  0.00000000E+00  0.00000000E+00  0.00000000E+00
  0.00000000E+00  0.00000000E+00  0.00000000E+00
  0.00000000E+00  0.00000000E+00  0.00000000E+00
  0.00000000E+00  0.00000000E+00  0.00000000E+00
  0.00000000E+00  0.00000000E+00  0.00000000E+00
  0.00000000E+00  0.00000000E+00  0.00000000E+00
  0.00000000E+00  0.00000000E+00  0.00000000E+00
  0.00000000E+00  0.00000000E+00  0.00000000E+00
  0.00000000E+00  0.00000000E+00  0.00000000E+00
  0.00000000E+00  0.00000000E+00  0.00000000E+00
  0.00000000E+00  0.00000000E+00  0.00000000E+00
  0.00000000E+00  0.00000000E+00  0.00000000E+00
  0.00000000E+00  0.00000000E+00  0.00000000E+00
  0.00000000E+00  0.00000000E+00  0.00000000E+00
  0.00000000E+00  0.00000000E+00  0.00000000E+00
  0.00000000E+00  0.00000000E+00  0.00000000E+00
  0.00000000E+00  0.00000000E+00  0.00000000E+00
  0.00000000E+00  0.00000000E+00  0.00000000E+00
  0.00000000E+00  0.00000000E+00  0.00000000E+00
  0.00000000E+00  0.00000000E+00  0.00000000E+00
  0.00000000E+00  0.00000000E+00  0.00000000E+00
  0.00000000E+00  0.00000000E+00  0.00000000E+00
  0.00000000E+00  0.00000000E+00  0.00000000E+00
  0.00000000E+00  0.00000000E+00  0.00000000E+00
  0.00000000E+00  0.00000000E+00  0.00000000E+00
  0.00000000E+00  0.00000000E+00  0.00000000E+00
  0.00000000E+00  0.00000000E+00  0.00000000E+00
  0.00000000E+00  0.00000000E+00  0.00000000E+00
  0.00000000E+00  0.00000000E+00  0.00000000E+00
  0.00000000E+00  0.00000000E+00  0.00000000E+00
  0.00000000E+00  0.00000000E+00  0.00000000E+00
  0.00000000E+00  0.00000000E+00  0.00000000E+00
  0.00000000E+00  0.00000000E+00  0.00000000E+00
  0.00000000E+00  0.00000000E+00  0.00000000E+00
  0.00000000E+00  0.00000000E+00  0.00000000E+00
  0.00000000E+00  0.00000000E+00  0.00000000E+00
  0.00000000E+00  0.00000000E+00  0.00000000E+00
  0.00000000E+00  0.00000000E+00  0.00000000E+00
  0.00000000E+00  0.00000000E+00  0.00000000E+00
  0.00000000E+00  0.00000000E+00  0.00000000E+00
  0.00000000E+00  0.00000000E+00  0.00000000E+00
  0.00000000E+00  0.00000000E+00  0.00000000E+00
  0.00000000E+00  0.00000000E+00  0.00000000E+00
  0.00000000E+00  0.00000000E+00  0.00000000E+00
  0.00000000E+00  0.00000000E+00  0.00000000E+00
  0.00000000E+00  0.00000000E+00  0.00000000E+00
  0.00000000E+00  0.00000000E+00  0.00000000E+00
  0.00000000E+00  0.00000000E+00  0.00000000E+00
  0.00000000E+00  0.00000000E+00  0.00000000E+00
  0.00000000E+00  0.00000000E+00  0.00000000E+00
  0.00000000E+00  0.00000000E+00  0.00000000E+00
  0.00000000E+00  0.00000000E+00  0.00000000E+00
  0.00000000E+00  0.00000000E+00  0.00000000E+00
  0.00000000E+00  0.00000000E+00  0.00000000E+00
  0.00000000E+00  0.00000000E+00  0.00000000E+00
  0.00000000E+00  0.00000000E+00  0.00000000E+00
  0.00000000E+00  0.00000000E+00  0.00000000E+00
  0.00000000E+00  0.00000000E+00  0.00000000E+00
  0.00000000E+00  0.00000000E+00  0.00000000E+00
  0.00000000E+00  0.00000000E+00  0.00000000E+00
  0.00000000E+00  0.00000000E+00  0.00000000E+00
  0.00000000E+00  0.00000000E+00  0.00000000E+00
  0.00000000E+00  0.00000000E+00  0.00000000E+00
  0.00000000E+00  0.00000000E+00  0.00000000E+00
  0.00000000E+00  0.00000000E+00  0.00000000E+00
  0.00000000E+00  0.00000000E+00  0.00000000E+00
  0.00000000E+00  0.00000000E+00  0.00000000E+00
  0.00000000E+00  0.00000000E+00  0.00000000E+00
  0.00000000E+00  0.00000000E+00  0.00000000E+00
