Platinum (Pt) Crystal                   
    1.000000000000000     
    15.0000000000000000    0.0000000000000000    0.0000000000000000
     0.0000000000000000   16.0000000000000000    0.0000000000000000
     0.0000000000000000    0.0000000000000000   17.0000000000000000
   Pt
     4
Direct
  0.4583377097578062  0.4635260276300197  0.5588013702423529
  0.6255030419169996  0.4631854268497449  0.5588646911489649
  0.3745402823473316  0.5993386417772827  0.5588164332722170
  0.5416189659778695  0.5989499037429525  0.5588116229835375
 
  0.00000000E+00  0.00000000E+00  0.00000000E+00
  0.00000000E+00  0.00000000E+00  0.00000000E+00
  0.00000000E+00  0.00000000E+00  0.00000000E+00
  0.00000000E+00  0.00000000E+00  0.00000000E+00
