Platinum (Pt) Crystal
1.0
15.0000000000  0.0000000000  0.0000000000
0.0000000000  16.0000000000  0.0000000000
0.0000000000  0.0000000000  17.0000000000
Pt
4
Cartesian
6.87 7.408807991231607 9.5
9.39 7.408807991231607 9.5
5.610000000000001 9.591192008768394 9.5
8.129999999999999 9.591192008768394 9.5

