Zn96 H16 O96                            
    1.000000000000000     
    12.9159907272337371    0.0000000000000000    0.0000000000000008
    -6.4575301003323453   11.1858448318051593    0.0000000000000008
     0.0000000000000000    0.0000000000000000   41.8715658066988325
   Zn   O    H    H 
    96    96    16     2
Selective dynamics
Direct
  0.0833422700331283  0.1666569644086167  0.4138641089449635   F   F   F
  0.0833422700331283  0.4166569644086238  0.4138641089449635   F   F   F
  0.0833422700331283  0.6666569644086167  0.4138641089449635   F   F   F
  0.0833422700331283  0.9166569644086167  0.4138641089449635   F   F   F
  0.3333422700331283  0.1666569644086167  0.4138641089449635   F   F   F
  0.3333422700331283  0.4166569644086238  0.4138641089449635   F   F   F
  0.3333422700331283  0.6666569644086167  0.4138641089449635   F   F   F
  0.3333422700331283  0.9166569644086167  0.4138641089449635   F   F   F
  0.5833422700331283  0.1666569644086167  0.4138641089449635   F   F   F
  0.5833422700331283  0.4166569644086238  0.4138641089449635   F   F   F
  0.5833422700331283  0.6666569644086167  0.4138641089449635   F   F   F
  0.5833422700331283  0.9166569644086167  0.4138641089449635   F   F   F
  0.8333422700331283  0.1666569644086167  0.4138641089449635   F   F   F
  0.8333422700331283  0.4166569644086238  0.4138641089449635   F   F   F
  0.8333422700331283  0.6666569644086167  0.4138641089449635   F   F   F
  0.8333422700331283  0.9166569644086167  0.4138641089449635   F   F   F
  0.1666568958537624  0.0833424376166505  0.3513640990662594   F   F   F
  0.1666568958537624  0.3333424376166505  0.3513640990662594   F   F   F
  0.1666568958537624  0.5833424376166505  0.3513640990662594   F   F   F
  0.1666568958537624  0.8333424376166505  0.3513640990662594   F   F   F
  0.4166568958537624  0.0833424376166505  0.3513640990662594   F   F   F
  0.4166568958537624  0.3333424376166505  0.3513640990662594   F   F   F
  0.4166568958537624  0.5833424376166505  0.3513640990662594   F   F   F
  0.4166568958537624  0.8333424376166505  0.3513640990662594   F   F   F
  0.6666568958537624  0.0833424376166505  0.3513640990662594   F   F   F
  0.6666568958537624  0.3333424376166505  0.3513640990662594   F   F   F
  0.6666568958537624  0.5833424376166505  0.3513640990662594   F   F   F
  0.6666568958537624  0.8333424376166505  0.3513640990662594   F   F   F
  0.9166568958537624  0.0833424376166505  0.3513640990662594   F   F   F
  0.9166568958537624  0.3333424376166505  0.3513640990662594   F   F   F
  0.9166568958537624  0.5833424376166505  0.3513640990662594   F   F   F
  0.9166568958537624  0.8333424376166505  0.3513640990662594   F   F   F
  0.0833421456183316  0.1666568756581057  0.5388641089449635   F   F   F
  0.0833421456183316  0.4166568756581057  0.5388641089449635   F   F   F
  0.0833421456183316  0.6666568756581057  0.5388641089449635   F   F   F
  0.0833421456183316  0.9166568756581057  0.5388641089449635   F   F   F
  0.3333421456183316  0.1666568756581057  0.5388641089449635   F   F   F
  0.3333421456183316  0.4166568756581057  0.5388641089449635   F   F   F
  0.3333421456183316  0.6666568756581057  0.5388641089449635   F   F   F
  0.3333421456183316  0.9166568756581057  0.5388641089449635   F   F   F
  0.5833421456183316  0.1666568756581057  0.5388641089449635   F   F   F
  0.5833421456183316  0.4166568756581057  0.5388641089449635   F   F   F
  0.5833421456183316  0.6666568756581057  0.5388641089449635   F   F   F
  0.5833421456183316  0.9166568756581057  0.5388641089449635   F   F   F
  0.8333421456183316  0.1666568756581057  0.5388641089449635   F   F   F
  0.8333421456183316  0.4166568756581057  0.5388641089449635   F   F   F
  0.8333421456183316  0.6666568756581057  0.5388641089449635   F   F   F
  0.8333421456183316  0.9166568756581057  0.5388641089449635   F   F   F
  0.1666567714389657  0.0833423488661396  0.4763640990662594   F   F   F
  0.1666567714389657  0.3333423488661396  0.4763640990662594   F   F   F
  0.1666567714389657  0.5833423488661396  0.4763640990662594   F   F   F
  0.1666567714389657  0.8333423488661396  0.4763640990662594   F   F   F
  0.4166567714389657  0.0833423488661396  0.4763640990662594   F   F   F
  0.4166567714389657  0.3333423488661396  0.4763640990662594   F   F   F
  0.4166567714389657  0.5833423488661396  0.4763640990662594   F   F   F
  0.4166567714389657  0.8333423488661396  0.4763640990662594   F   F   F
  0.6666567714389657  0.0833423488661396  0.4763640990662594   F   F   F
  0.6666567714389657  0.3333423488661396  0.4763640990662594   F   F   F
  0.6666567714389657  0.5833423488661396  0.4763640990662594   F   F   F
  0.6666567714389657  0.8333423488661396  0.4763640990662594   F   F   F
  0.9166567714389657  0.0833423488661396  0.4763640990662594   F   F   F
  0.9166567714389657  0.3333423488661396  0.4763640990662594   F   F   F
  0.9166567714389657  0.5833423488661396  0.4763640990662594   F   F   F
  0.9166567714389657  0.8333423488661396  0.4763640990662594   F   F   F
  0.0839878643373879  0.1717075745814967  0.6691639703456289   T   T   T
  0.0816526466589309  0.4131965253662671  0.6637157702206622   T   T   T
  0.0742904714099666  0.6662916448545744  0.6684104747644923   T   T   T
  0.0819276901881594  0.9180282920957907  0.6633296739710772   T   T   T
  0.3359527332794698  0.1686607801016464  0.6627067377876656   T   T   T
  0.3502445824436009  0.4378524136207034  0.6705150297850579   T   T   T
  0.3255837935542871  0.6744481207950841  0.6576157352045797   T   T   T
  0.3336813275534070  0.9257054123423174  0.6683436523199262   T   T   T
  0.6040084184008663  0.1840905090192706  0.6708235051120255   T   T   T
  0.5829500411286119  0.4170539711114358  0.6552547330924199   T   T   T
  0.5621802114956296  0.6497916783727646  0.6705040473510095   T   T   T
  0.5869016849757500  0.9183366192012841  0.6637419615226605   T   T   T
  0.8391317383556682  0.1607174761777941  0.6643459494839661   T   T   T
  0.8159371905648314  0.3960090046187190  0.6708192612462156   T   T   T
  0.8313880186218299  0.6640929022201263  0.6626727384027689   T   T   T
  0.8282853424340146  0.9160943611015355  0.6692424816671121   T   T   T
  0.1661259450780435  0.0848203330621971  0.6028555501072148   T   T   T
  0.1687748824809674  0.3344978676327131  0.6050713803043948   T   T   T
  0.1601883826371804  0.5829179916880420  0.6018453156801300   T   T   T
  0.1660810429668942  0.8338909337585036  0.6031424805410524   T   T   T
  0.4208414191327705  0.0865985701938712  0.6049280991956678   T   T   T
  0.4122261328591605  0.3344502708918924  0.6018471198783431   T   T   T
  0.4138149945759793  0.5861967637729464  0.5996865827598583   T   T   T
  0.4170986781426080  0.8398067138199039  0.6018472843777971   T   T   T
  0.6677086794982543  0.0839275378861544  0.6032054822436095   T   T   T
  0.6673494639811111  0.3326438096280526  0.5984943835132768   T   T   T
  0.6655444439696723  0.5877708983584640  0.6018461437238258   T   T   T
  0.6655213893452867  0.8312257684519579  0.6050750871381467   T   T   T
  0.9180507158377225  0.0819400300945858  0.6019465084084530   T   T   T
  0.9160469620402409  0.3322628512857690  0.6032108693350722   T   T   T
  0.9134126419754409  0.5791527231800657  0.6049282034047465   T   T   T
  0.9151626878719554  0.8338901221581452  0.6028640389482831   T   T   T
  0.0833223251846178  0.1666771555741846  0.3361358956743672   F   F   F
  0.0833223251846178  0.4166771555741846  0.3361358956743672   F   F   F
  0.0833223251846178  0.6666771555741775  0.3361358956743672   F   F   F
  0.0833223251846178  0.9166771555741775  0.3361358956743672   F   F   F
  0.3333223251846178  0.1666771555741846  0.3361358956743672   F   F   F
  0.3333223251846178  0.4166771555741846  0.3361358956743672   F   F   F
  0.3333223251846178  0.6666771555741775  0.3361358956743672   F   F   F
  0.3333223251846178  0.9166771555741775  0.3361358956743672   F   F   F
  0.5833223251846178  0.1666771555741846  0.3361358956743672   F   F   F
  0.5833223251846178  0.4166771555741846  0.3361358956743672   F   F   F
  0.5833223251846178  0.6666771555741775  0.3361358956743672   F   F   F
  0.5833223251846178  0.9166771555741775  0.3361358956743672   F   F   F
  0.8333223251846178  0.1666771555741846  0.3361358956743672   F   F   F
  0.8333223251846178  0.4166771555741846  0.3361358956743672   F   F   F
  0.8333223251846178  0.6666771555741775  0.3361358956743672   F   F   F
  0.8333223251846178  0.9166771555741775  0.3361358956743672   F   F   F
  0.1666770009509335  0.0833223773943388  0.3986358963144099   F   F   F
  0.1666770009509335  0.3333223773943388  0.3986358963144099   F   F   F
  0.1666770009509335  0.5833223773943388  0.3986358963144099   F   F   F
  0.1666770009509335  0.8333223773943388  0.3986358963144099   F   F   F
  0.4166770009509335  0.0833223773943388  0.3986358963144099   F   F   F
  0.4166770009509335  0.3333223773943388  0.3986358963144099   F   F   F
  0.4166770009509335  0.5833223773943388  0.3986358963144099   F   F   F
  0.4166770009509335  0.8333223773943388  0.3986358963144099   F   F   F
  0.6666770009509335  0.0833223773943388  0.3986358963144099   F   F   F
  0.6666770009509335  0.3333223773943388  0.3986358963144099   F   F   F
  0.6666770009509335  0.5833223773943388  0.3986358963144099   F   F   F
  0.6666770009509335  0.8333223773943388  0.3986358963144099   F   F   F
  0.9166770009509335  0.0833223773943388  0.3986358963144099   F   F   F
  0.9166770009509335  0.3333223773943388  0.3986358963144099   F   F   F
  0.9166770009509335  0.5833223773943388  0.3986358963144099   F   F   F
  0.9166770009509335  0.8333223773943388  0.3986358963144099   F   F   F
  0.0833222007698211  0.1666770668236666  0.4611358956743672   F   F   F
  0.0833222007698211  0.4166770668236666  0.4611358956743672   F   F   F
  0.0833222007698211  0.6666770668236666  0.4611358956743672   F   F   F
  0.0833222007698211  0.9166770668236666  0.4611358956743672   F   F   F
  0.3333222007698211  0.1666770668236666  0.4611358956743672   F   F   F
  0.3333222007698211  0.4166770668236666  0.4611358956743672   F   F   F
  0.3333222007698211  0.6666770668236666  0.4611358956743672   F   F   F
  0.3333222007698211  0.9166770668236666  0.4611358956743672   F   F   F
  0.5833222007698211  0.1666770668236666  0.4611358956743672   F   F   F
  0.5833222007698211  0.4166770668236666  0.4611358956743672   F   F   F
  0.5833222007698211  0.6666770668236666  0.4611358956743672   F   F   F
  0.5833222007698211  0.9166770668236666  0.4611358956743672   F   F   F
  0.8333222007698211  0.1666770668236666  0.4611358956743672   F   F   F
  0.8333222007698211  0.4166770668236666  0.4611358956743672   F   F   F
  0.8333222007698211  0.6666770668236666  0.4611358956743672   F   F   F
  0.8333222007698211  0.9166770668236666  0.4611358956743672   F   F   F
  0.1666768765361368  0.0833222886438278  0.5236358963144099   F   F   F
  0.1666768765361368  0.3333222886438278  0.5236358963144099   F   F   F
  0.1666768765361368  0.5833222886438278  0.5236358963144099   F   F   F
  0.1666768765361368  0.8333222886438278  0.5236358963144099   F   F   F
  0.4166768765361368  0.0833222886438278  0.5236358963144099   F   F   F
  0.4166768765361368  0.3333222886438278  0.5236358963144099   F   F   F
  0.4166768765361368  0.5833222886438278  0.5236358963144099   F   F   F
  0.4166768765361368  0.8333222886438278  0.5236358963144099   F   F   F
  0.6666768765361368  0.0833222886438278  0.5236358963144099   F   F   F
  0.6666768765361368  0.3333222886438278  0.5236358963144099   F   F   F
  0.6666768765361368  0.5833222886438278  0.5236358963144099   F   F   F
  0.6666768765361368  0.8333222886438278  0.5236358963144099   F   F   F
  0.9166768765361368  0.0833222886438278  0.5236358963144099   F   F   F
  0.9166768765361368  0.3333222886438278  0.5236358963144099   F   F   F
  0.9166768765361368  0.5833222886438278  0.5236358963144099   F   F   F
  0.9166768765361368  0.8333222886438278  0.5236358963144099   F   F   F
  0.0858280702375183  0.1702611076857963  0.5873184659685933   T   T   T
  0.0836890537494597  0.4153903966614294  0.5879728689288015   T   T   T
  0.0781727246105675  0.6675141969106093  0.5874569638130112   T   T   T
  0.0821777139802791  0.9177987497372655  0.5876652313269162   T   T   T
  0.3344302314114103  0.1666106856055691  0.5880982467061386   T   T   T
  0.3308291711949920  0.4177150563149112  0.5866020811274097   T   T   T
  0.3283974067525577  0.6716041927077470  0.5870332202244342   T   T   T
  0.3324836254042509  0.9218178639888563  0.5874658049164054   T   T   T
  0.5825466470345617  0.1633330520485643  0.5866099541390426   T   T   T
  0.5809729074812822  0.4190269456246867  0.5872757086212133   T   T   T
  0.5822877612152411  0.6691667954378389  0.5866003512471849   T   T   T
  0.5846075324677358  0.9162910077285602  0.5879691207061484   T   T   T
  0.8337095680290147  0.1662673452366477  0.5873506082692543   T   T   T
  0.8366640388032351  0.4174360325033675  0.5866109383797280   T   T   T
  0.8333898019988553  0.6655773914246623  0.5881020690070997   T   T   T
  0.8297407447748881  0.9141789877209092  0.5873132073060887   T   T   T
  0.1671666188069878  0.0872108829653158  0.6530192785088573   T   T   T
  0.1806050534575974  0.3418243827504526  0.6556021864635539   T   T   T
  0.1558718997941853  0.5816007662208520  0.6523058171230645   T   T   T
  0.1665751902724182  0.8333993770879502  0.6525839191864478   T   T   T
  0.4337522266926044  0.0956428541253800  0.6556869607048696   T   T   T
  0.4125775221645966  0.3371781794216986  0.6518868435131751   T   T   T
  0.4083001406359301  0.5916887900847314  0.6466411433928414   T   T   T
  0.4184792099261543  0.8441627659118112  0.6523224949572608   T   T   T
  0.6701566454649210  0.0863494640058349  0.6526071925874533   T   T   T
  0.6648084415705355  0.3352007019500363  0.6455197238364860   T   T   T
  0.6628425910933302  0.5874218988811108  0.6518867229401692   T   T   T
  0.6582146871201431  0.8193713537280942  0.6555754776335760   T   T   T
  0.9215695566108835  0.0784687044022832  0.6504014839088441   T   T   T
  0.9136156632762962  0.3297367210792714  0.6526233686464309   T   T   T
  0.9043710554973856  0.5662576274576097  0.6556746402082752   T   T   T
  0.9127534852231562  0.8328954944751032  0.6530251175714881   T   T   T
  0.0833225000000013  0.1666774999999987  0.3114693200000005   F   F   F
  0.0833225000000013  0.4166774999999987  0.3114693200000005   F   F   F
  0.0833225000000013  0.6666774999999987  0.3114693200000005   F   F   F
  0.0833225000000013  0.9166774999999987  0.3114693200000005   F   F   F
  0.3333225000000013  0.1666774999999987  0.3114693200000005   F   F   F
  0.3333225000000013  0.4166774999999987  0.3114693200000005   F   F   F
  0.3333225000000013  0.6666774999999987  0.3114693200000005   F   F   F
  0.3333225000000013  0.9166774999999987  0.3114693200000005   F   F   F
  0.5833225000000013  0.1666774999999987  0.3114693200000005   F   F   F
  0.5833225000000013  0.4166774999999987  0.3114693200000005   F   F   F
  0.5833225000000013  0.6666774999999987  0.3114693200000005   F   F   F
  0.5833225000000013  0.9166774999999987  0.3114693200000005   F   F   F
  0.8333225000000013  0.1666774999999987  0.3114693200000005   F   F   F
  0.8333225000000013  0.4166774999999987  0.3114693200000005   F   F   F
  0.8333225000000013  0.6666774999999987  0.3114693200000005   F   F   F
  0.8333225000000013  0.9166774999999987  0.3114693200000005   F   F   F
  0.4664243592515689  0.5335937593102997  0.6981529392466470   T   T   T
  0.7173435976394416  0.2826309619802601  0.6987149757345108   T   T   T
 
  0.00000000E+00  0.00000000E+00  0.00000000E+00
  0.00000000E+00  0.00000000E+00  0.00000000E+00
  0.00000000E+00  0.00000000E+00  0.00000000E+00
  0.00000000E+00  0.00000000E+00  0.00000000E+00
  0.00000000E+00  0.00000000E+00  0.00000000E+00
  0.00000000E+00  0.00000000E+00  0.00000000E+00
  0.00000000E+00  0.00000000E+00  0.00000000E+00
  0.00000000E+00  0.00000000E+00  0.00000000E+00
  0.00000000E+00  0.00000000E+00  0.00000000E+00
  0.00000000E+00  0.00000000E+00  0.00000000E+00
  0.00000000E+00  0.00000000E+00  0.00000000E+00
  0.00000000E+00  0.00000000E+00  0.00000000E+00
  0.00000000E+00  0.00000000E+00  0.00000000E+00
  0.00000000E+00  0.00000000E+00  0.00000000E+00
  0.00000000E+00  0.00000000E+00  0.00000000E+00
  0.00000000E+00  0.00000000E+00  0.00000000E+00
  0.00000000E+00  0.00000000E+00  0.00000000E+00
  0.00000000E+00  0.00000000E+00  0.00000000E+00
  0.00000000E+00  0.00000000E+00  0.00000000E+00
  0.00000000E+00  0.00000000E+00  0.00000000E+00
  0.00000000E+00  0.00000000E+00  0.00000000E+00
  0.00000000E+00  0.00000000E+00  0.00000000E+00
  0.00000000E+00  0.00000000E+00  0.00000000E+00
  0.00000000E+00  0.00000000E+00  0.00000000E+00
  0.00000000E+00  0.00000000E+00  0.00000000E+00
  0.00000000E+00  0.00000000E+00  0.00000000E+00
  0.00000000E+00  0.00000000E+00  0.00000000E+00
  0.00000000E+00  0.00000000E+00  0.00000000E+00
  0.00000000E+00  0.00000000E+00  0.00000000E+00
  0.00000000E+00  0.00000000E+00  0.00000000E+00
  0.00000000E+00  0.00000000E+00  0.00000000E+00
  0.00000000E+00  0.00000000E+00  0.00000000E+00
  0.00000000E+00  0.00000000E+00  0.00000000E+00
  0.00000000E+00  0.00000000E+00  0.00000000E+00
  0.00000000E+00  0.00000000E+00  0.00000000E+00
  0.00000000E+00  0.00000000E+00  0.00000000E+00
  0.00000000E+00  0.00000000E+00  0.00000000E+00
  0.00000000E+00  0.00000000E+00  0.00000000E+00
  0.00000000E+00  0.00000000E+00  0.00000000E+00
  0.00000000E+00  0.00000000E+00  0.00000000E+00
  0.00000000E+00  0.00000000E+00  0.00000000E+00
  0.00000000E+00  0.00000000E+00  0.00000000E+00
  0.00000000E+00  0.00000000E+00  0.00000000E+00
  0.00000000E+00  0.00000000E+00  0.00000000E+00
  0.00000000E+00  0.00000000E+00  0.00000000E+00
  0.00000000E+00  0.00000000E+00  0.00000000E+00
  0.00000000E+00  0.00000000E+00  0.00000000E+00
  0.00000000E+00  0.00000000E+00  0.00000000E+00
  0.00000000E+00  0.00000000E+00  0.00000000E+00
  0.00000000E+00  0.00000000E+00  0.00000000E+00
  0.00000000E+00  0.00000000E+00  0.00000000E+00
  0.00000000E+00  0.00000000E+00  0.00000000E+00
  0.00000000E+00  0.00000000E+00  0.00000000E+00
  0.00000000E+00  0.00000000E+00  0.00000000E+00
  0.00000000E+00  0.00000000E+00  0.00000000E+00
  0.00000000E+00  0.00000000E+00  0.00000000E+00
  0.00000000E+00  0.00000000E+00  0.00000000E+00
  0.00000000E+00  0.00000000E+00  0.00000000E+00
  0.00000000E+00  0.00000000E+00  0.00000000E+00
  0.00000000E+00  0.00000000E+00  0.00000000E+00
  0.00000000E+00  0.00000000E+00  0.00000000E+00
  0.00000000E+00  0.00000000E+00  0.00000000E+00
  0.00000000E+00  0.00000000E+00  0.00000000E+00
  0.00000000E+00  0.00000000E+00  0.00000000E+00
  0.00000000E+00  0.00000000E+00  0.00000000E+00
  0.00000000E+00  0.00000000E+00  0.00000000E+00
  0.00000000E+00  0.00000000E+00  0.00000000E+00
  0.00000000E+00  0.00000000E+00  0.00000000E+00
  0.00000000E+00  0.00000000E+00  0.00000000E+00
  0.00000000E+00  0.00000000E+00  0.00000000E+00
  0.00000000E+00  0.00000000E+00  0.00000000E+00
  0.00000000E+00  0.00000000E+00  0.00000000E+00
  0.00000000E+00  0.00000000E+00  0.00000000E+00
  0.00000000E+00  0.00000000E+00  0.00000000E+00
  0.00000000E+00  0.00000000E+00  0.00000000E+00
  0.00000000E+00  0.00000000E+00  0.00000000E+00
  0.00000000E+00  0.00000000E+00  0.00000000E+00
  0.00000000E+00  0.00000000E+00  0.00000000E+00
  0.00000000E+00  0.00000000E+00  0.00000000E+00
  0.00000000E+00  0.00000000E+00  0.00000000E+00
  0.00000000E+00  0.00000000E+00  0.00000000E+00
  0.00000000E+00  0.00000000E+00  0.00000000E+00
  0.00000000E+00  0.00000000E+00  0.00000000E+00
  0.00000000E+00  0.00000000E+00  0.00000000E+00
  0.00000000E+00  0.00000000E+00  0.00000000E+00
  0.00000000E+00  0.00000000E+00  0.00000000E+00
  0.00000000E+00  0.00000000E+00  0.00000000E+00
  0.00000000E+00  0.00000000E+00  0.00000000E+00
  0.00000000E+00  0.00000000E+00  0.00000000E+00
  0.00000000E+00  0.00000000E+00  0.00000000E+00
  0.00000000E+00  0.00000000E+00  0.00000000E+00
  0.00000000E+00  0.00000000E+00  0.00000000E+00
  0.00000000E+00  0.00000000E+00  0.00000000E+00
  0.00000000E+00  0.00000000E+00  0.00000000E+00
  0.00000000E+00  0.00000000E+00  0.00000000E+00
  0.00000000E+00  0.00000000E+00  0.00000000E+00
  0.00000000E+00  0.00000000E+00  0.00000000E+00
  0.00000000E+00  0.00000000E+00  0.00000000E+00
  0.00000000E+00  0.00000000E+00  0.00000000E+00
  0.00000000E+00  0.00000000E+00  0.00000000E+00
  0.00000000E+00  0.00000000E+00  0.00000000E+00
  0.00000000E+00  0.00000000E+00  0.00000000E+00
  0.00000000E+00  0.00000000E+00  0.00000000E+00
  0.00000000E+00  0.00000000E+00  0.00000000E+00
  0.00000000E+00  0.00000000E+00  0.00000000E+00
  0.00000000E+00  0.00000000E+00  0.00000000E+00
  0.00000000E+00  0.00000000E+00  0.00000000E+00
  0.00000000E+00  0.00000000E+00  0.00000000E+00
  0.00000000E+00  0.00000000E+00  0.00000000E+00
  0.00000000E+00  0.00000000E+00  0.00000000E+00
  0.00000000E+00  0.00000000E+00  0.00000000E+00
  0.00000000E+00  0.00000000E+00  0.00000000E+00
  0.00000000E+00  0.00000000E+00  0.00000000E+00
  0.00000000E+00  0.00000000E+00  0.00000000E+00
  0.00000000E+00  0.00000000E+00  0.00000000E+00
  0.00000000E+00  0.00000000E+00  0.00000000E+00
  0.00000000E+00  0.00000000E+00  0.00000000E+00
  0.00000000E+00  0.00000000E+00  0.00000000E+00
  0.00000000E+00  0.00000000E+00  0.00000000E+00
  0.00000000E+00  0.00000000E+00  0.00000000E+00
  0.00000000E+00  0.00000000E+00  0.00000000E+00
  0.00000000E+00  0.00000000E+00  0.00000000E+00
  0.00000000E+00  0.00000000E+00  0.00000000E+00
  0.00000000E+00  0.00000000E+00  0.00000000E+00
  0.00000000E+00  0.00000000E+00  0.00000000E+00
  0.00000000E+00  0.00000000E+00  0.00000000E+00
  0.00000000E+00  0.00000000E+00  0.00000000E+00
  0.00000000E+00  0.00000000E+00  0.00000000E+00
  0.00000000E+00  0.00000000E+00  0.00000000E+00
  0.00000000E+00  0.00000000E+00  0.00000000E+00
  0.00000000E+00  0.00000000E+00  0.00000000E+00
  0.00000000E+00  0.00000000E+00  0.00000000E+00
  0.00000000E+00  0.00000000E+00  0.00000000E+00
  0.00000000E+00  0.00000000E+00  0.00000000E+00
  0.00000000E+00  0.00000000E+00  0.00000000E+00
  0.00000000E+00  0.00000000E+00  0.00000000E+00
  0.00000000E+00  0.00000000E+00  0.00000000E+00
  0.00000000E+00  0.00000000E+00  0.00000000E+00
  0.00000000E+00  0.00000000E+00  0.00000000E+00
  0.00000000E+00  0.00000000E+00  0.00000000E+00
  0.00000000E+00  0.00000000E+00  0.00000000E+00
  0.00000000E+00  0.00000000E+00  0.00000000E+00
  0.00000000E+00  0.00000000E+00  0.00000000E+00
  0.00000000E+00  0.00000000E+00  0.00000000E+00
  0.00000000E+00  0.00000000E+00  0.00000000E+00
  0.00000000E+00  0.00000000E+00  0.00000000E+00
  0.00000000E+00  0.00000000E+00  0.00000000E+00
  0.00000000E+00  0.00000000E+00  0.00000000E+00
  0.00000000E+00  0.00000000E+00  0.00000000E+00
  0.00000000E+00  0.00000000E+00  0.00000000E+00
  0.00000000E+00  0.00000000E+00  0.00000000E+00
  0.00000000E+00  0.00000000E+00  0.00000000E+00
  0.00000000E+00  0.00000000E+00  0.00000000E+00
  0.00000000E+00  0.00000000E+00  0.00000000E+00
  0.00000000E+00  0.00000000E+00  0.00000000E+00
  0.00000000E+00  0.00000000E+00  0.00000000E+00
  0.00000000E+00  0.00000000E+00  0.00000000E+00
  0.00000000E+00  0.00000000E+00  0.00000000E+00
  0.00000000E+00  0.00000000E+00  0.00000000E+00
  0.00000000E+00  0.00000000E+00  0.00000000E+00
  0.00000000E+00  0.00000000E+00  0.00000000E+00
  0.00000000E+00  0.00000000E+00  0.00000000E+00
  0.00000000E+00  0.00000000E+00  0.00000000E+00
  0.00000000E+00  0.00000000E+00  0.00000000E+00
  0.00000000E+00  0.00000000E+00  0.00000000E+00
  0.00000000E+00  0.00000000E+00  0.00000000E+00
  0.00000000E+00  0.00000000E+00  0.00000000E+00
  0.00000000E+00  0.00000000E+00  0.00000000E+00
  0.00000000E+00  0.00000000E+00  0.00000000E+00
  0.00000000E+00  0.00000000E+00  0.00000000E+00
  0.00000000E+00  0.00000000E+00  0.00000000E+00
  0.00000000E+00  0.00000000E+00  0.00000000E+00
  0.00000000E+00  0.00000000E+00  0.00000000E+00
  0.00000000E+00  0.00000000E+00  0.00000000E+00
  0.00000000E+00  0.00000000E+00  0.00000000E+00
  0.00000000E+00  0.00000000E+00  0.00000000E+00
  0.00000000E+00  0.00000000E+00  0.00000000E+00
  0.00000000E+00  0.00000000E+00  0.00000000E+00
  0.00000000E+00  0.00000000E+00  0.00000000E+00
  0.00000000E+00  0.00000000E+00  0.00000000E+00
  0.00000000E+00  0.00000000E+00  0.00000000E+00
  0.00000000E+00  0.00000000E+00  0.00000000E+00
  0.00000000E+00  0.00000000E+00  0.00000000E+00
  0.00000000E+00  0.00000000E+00  0.00000000E+00
  0.00000000E+00  0.00000000E+00  0.00000000E+00
  0.00000000E+00  0.00000000E+00  0.00000000E+00
  0.00000000E+00  0.00000000E+00  0.00000000E+00
  0.00000000E+00  0.00000000E+00  0.00000000E+00
  0.00000000E+00  0.00000000E+00  0.00000000E+00
  0.00000000E+00  0.00000000E+00  0.00000000E+00
  0.00000000E+00  0.00000000E+00  0.00000000E+00
  0.00000000E+00  0.00000000E+00  0.00000000E+00
  0.00000000E+00  0.00000000E+00  0.00000000E+00
  0.00000000E+00  0.00000000E+00  0.00000000E+00
  0.00000000E+00  0.00000000E+00  0.00000000E+00
  0.00000000E+00  0.00000000E+00  0.00000000E+00
  0.00000000E+00  0.00000000E+00  0.00000000E+00
  0.00000000E+00  0.00000000E+00  0.00000000E+00
  0.00000000E+00  0.00000000E+00  0.00000000E+00
  0.00000000E+00  0.00000000E+00  0.00000000E+00
  0.00000000E+00  0.00000000E+00  0.00000000E+00
  0.00000000E+00  0.00000000E+00  0.00000000E+00
  0.00000000E+00  0.00000000E+00  0.00000000E+00
  0.00000000E+00  0.00000000E+00  0.00000000E+00
  0.00000000E+00  0.00000000E+00  0.00000000E+00
  0.00000000E+00  0.00000000E+00  0.00000000E+00
  0.00000000E+00  0.00000000E+00  0.00000000E+00
  0.00000000E+00  0.00000000E+00  0.00000000E+00
  0.00000000E+00  0.00000000E+00  0.00000000E+00
  0.00000000E+00  0.00000000E+00  0.00000000E+00
