Zn32 O32                                
   1.00000000000000     
     6.4579954147000000    0.0000000000000000    0.0000000000000000
     0.0000000000000000    5.2339458466000002    0.0000000000000000
     0.0000000000000000    0.0000000000000000   39.1504554748999993
   Zn   O    H1   H0
    32    32     2     2
Selective dynamics
Direct
  0.4999704095012252  0.0317096815718442  0.2433893476997872   T   T   T
  0.9999703658478396  0.0317098351998034  0.2433893452727795   T   T   T
  0.2499888592710997  0.4935844777523704  0.2585181735603372   T   T   T
  0.7499888731276040  0.4935844828889745  0.2585181905155602   T   T   T
  0.2500498890000031  0.0054172620000017  0.3095264729999982   F   F   F
  0.7500498890000031  0.0054172620000017  0.3095264729999982   F   F   F
  0.0001121760000018  0.5054171089999997  0.3333306310000026   F   F   F
  0.5001121760000018  0.5054171089999997  0.3333306310000026   F   F   F
  0.0000678899999969  0.0054171199999971  0.3809550400000035   F   F   F
  0.5000679489999982  0.0054171199999971  0.3809550400000035   F   F   F
  0.7501302359999968  0.5054169889999969  0.4047592280000032   F   F   F
  0.2501302359999968  0.5054169889999969  0.4047592280000032   F   F   F
  0.7500860099999969  0.0054169779999995  0.4523836369999970   F   F   F
  0.2500859499999990  0.0054169779999995  0.4523836369999970   F   F   F
  0.5001481769999998  0.5054168699999977  0.4761877950000013   F   F   F
  0.0001482369999977  0.5054168699999977  0.4761877950000013   F   F   F
  0.5001039509999998  0.0054168360000020  0.5238121750000033   F   F   F
  0.0001039509999998  0.0054168360000020  0.5238121750000033   F   F   F
  0.2501662969999998  0.5054166910000006  0.5476163630000030   F   F   F
  0.7501662969999998  0.5054166910000006  0.5476163630000030   F   F   F
  0.2501219509999970  0.0054166939999973  0.5952407719999968   F   F   F
  0.7501219509999970  0.0054166939999973  0.5952407719999968   F   F   F
  0.0001842980000006  0.5054165720000015  0.6190448999999987   F   F   F
  0.5001842980000006  0.5054165720000015  0.6190448999999987   F   F   F
  0.0001399519999978  0.0054165519999998  0.6666693089999995   F   F   F
  0.5001399519999978  0.0054165519999998  0.6666693089999995   F   F   F
  0.7502021789999986  0.5054164530000023  0.6904734969999993   F   F   F
  0.2502022979999978  0.5054164530000023  0.6904734969999993   F   F   F
  0.7501580719999978  0.0054164100000023  0.7380979060000001   F   F   F
  0.2501579520000021  0.0054164100000023  0.7380979060000001   F   F   F
  0.5002202989999986  0.5054162739999981  0.7619020939999999   F   F   F
  0.0002202989999986  0.5054162739999981  0.7619020939999999   F   F   F
  0.4999921048166611  0.3830779255158070  0.2355782675964871   T   T   T
  0.9999919966580886  0.3830777919595259  0.2355782704108771   T   T   T
  0.2499642087386678  0.8742297748762835  0.2606659030338793   T   T   T
  0.7499640740151479  0.8742297719848462  0.2606659173773495   T   T   T
  0.2501102089999989  0.3835915920000019  0.3095207510000009   F   F   F
  0.7501102089999989  0.3835915920000019  0.3095207510000009   F   F   F
  0.0000519749999981  0.8835914730000027  0.3333364129999978   F   F   F
  0.5000519749999981  0.8835914730000027  0.3333364129999978   F   F   F
  0.0001282099999997  0.3835914129999978  0.3809493179999990   F   F   F
  0.5001282099999997  0.3835914129999978  0.3809493179999990   F   F   F
  0.7500699759999989  0.8835912939999986  0.4047649800000030   F   F   F
  0.2500700350000002  0.8835912939999986  0.4047649800000030   F   F   F
  0.7501462099999969  0.3835912640000032  0.4523779450000021   F   F   F
  0.2501462099999969  0.3835912640000032  0.4523779450000021   F   F   F
  0.5000879760000032  0.8835912349999973  0.4761935470000012   F   F   F
  0.0000880360000011  0.8835912349999973  0.4761935470000012   F   F   F
  0.5001642699999991  0.3835911150000015  0.5238064529999988   F   F   F
  0.0001642109999977  0.3835911150000015  0.5238064529999988   F   F   F
  0.2501060960000032  0.8835911150000015  0.5476221440000018   F   F   F
  0.7501060370000019  0.8835911150000015  0.5476221440000018   F   F   F
  0.2501822709999999  0.3835909960000023  0.5952350499999994   F   F   F
  0.7501822709999999  0.3835909960000023  0.5952350499999994   F   F   F
  0.0001240969999969  0.8835909370000010  0.6190506820000010   F   F   F
  0.5001240969999969  0.8835909370000010  0.6190506820000010   F   F   F
  0.0002002720000007  0.3835908470000007  0.6666636470000000   F   F   F
  0.5002002720000007  0.3835908470000007  0.6666636470000000   F   F   F
  0.7501420970000012  0.8835908770000032  0.6904792790000016   F   F   F
  0.2501420970000012  0.8835908770000032  0.6904792790000016   F   F   F
  0.7502183909999971  0.3835907280000015  0.7380921840000028   F   F   F
  0.2502182719999979  0.3835907280000015  0.7380921840000028   F   F   F
  0.5001599790000029  0.8835906979999990  0.7619078159999972   F   F   F
  0.0001600980000021  0.8835906979999990  0.7619078159999972   F   F   F
  0.5002338890000004  0.4077241419999993  0.8000874519999996   F   F   F
  0.0002335410000001  0.4077241419999993  0.8000874519999996   F   F   F
  0.1312311590000022  0.9474623799999975  0.7743908169999969   F   F   F
  0.6312315460000022  0.9474623799999975  0.7743908169999969   F   F   F
 
  0.00000000E+00  0.00000000E+00  0.00000000E+00
  0.00000000E+00  0.00000000E+00  0.00000000E+00
  0.00000000E+00  0.00000000E+00  0.00000000E+00
  0.00000000E+00  0.00000000E+00  0.00000000E+00
  0.00000000E+00  0.00000000E+00  0.00000000E+00
  0.00000000E+00  0.00000000E+00  0.00000000E+00
  0.00000000E+00  0.00000000E+00  0.00000000E+00
  0.00000000E+00  0.00000000E+00  0.00000000E+00
  0.00000000E+00  0.00000000E+00  0.00000000E+00
  0.00000000E+00  0.00000000E+00  0.00000000E+00
  0.00000000E+00  0.00000000E+00  0.00000000E+00
  0.00000000E+00  0.00000000E+00  0.00000000E+00
  0.00000000E+00  0.00000000E+00  0.00000000E+00
  0.00000000E+00  0.00000000E+00  0.00000000E+00
  0.00000000E+00  0.00000000E+00  0.00000000E+00
  0.00000000E+00  0.00000000E+00  0.00000000E+00
  0.00000000E+00  0.00000000E+00  0.00000000E+00
  0.00000000E+00  0.00000000E+00  0.00000000E+00
  0.00000000E+00  0.00000000E+00  0.00000000E+00
  0.00000000E+00  0.00000000E+00  0.00000000E+00
  0.00000000E+00  0.00000000E+00  0.00000000E+00
  0.00000000E+00  0.00000000E+00  0.00000000E+00
  0.00000000E+00  0.00000000E+00  0.00000000E+00
  0.00000000E+00  0.00000000E+00  0.00000000E+00
  0.00000000E+00  0.00000000E+00  0.00000000E+00
  0.00000000E+00  0.00000000E+00  0.00000000E+00
  0.00000000E+00  0.00000000E+00  0.00000000E+00
  0.00000000E+00  0.00000000E+00  0.00000000E+00
  0.00000000E+00  0.00000000E+00  0.00000000E+00
  0.00000000E+00  0.00000000E+00  0.00000000E+00
  0.00000000E+00  0.00000000E+00  0.00000000E+00
  0.00000000E+00  0.00000000E+00  0.00000000E+00
  0.00000000E+00  0.00000000E+00  0.00000000E+00
  0.00000000E+00  0.00000000E+00  0.00000000E+00
  0.00000000E+00  0.00000000E+00  0.00000000E+00
  0.00000000E+00  0.00000000E+00  0.00000000E+00
  0.00000000E+00  0.00000000E+00  0.00000000E+00
  0.00000000E+00  0.00000000E+00  0.00000000E+00
  0.00000000E+00  0.00000000E+00  0.00000000E+00
  0.00000000E+00  0.00000000E+00  0.00000000E+00
  0.00000000E+00  0.00000000E+00  0.00000000E+00
  0.00000000E+00  0.00000000E+00  0.00000000E+00
  0.00000000E+00  0.00000000E+00  0.00000000E+00
  0.00000000E+00  0.00000000E+00  0.00000000E+00
  0.00000000E+00  0.00000000E+00  0.00000000E+00
  0.00000000E+00  0.00000000E+00  0.00000000E+00
  0.00000000E+00  0.00000000E+00  0.00000000E+00
  0.00000000E+00  0.00000000E+00  0.00000000E+00
  0.00000000E+00  0.00000000E+00  0.00000000E+00
  0.00000000E+00  0.00000000E+00  0.00000000E+00
  0.00000000E+00  0.00000000E+00  0.00000000E+00
  0.00000000E+00  0.00000000E+00  0.00000000E+00
  0.00000000E+00  0.00000000E+00  0.00000000E+00
  0.00000000E+00  0.00000000E+00  0.00000000E+00
  0.00000000E+00  0.00000000E+00  0.00000000E+00
  0.00000000E+00  0.00000000E+00  0.00000000E+00
  0.00000000E+00  0.00000000E+00  0.00000000E+00
  0.00000000E+00  0.00000000E+00  0.00000000E+00
  0.00000000E+00  0.00000000E+00  0.00000000E+00
  0.00000000E+00  0.00000000E+00  0.00000000E+00
  0.00000000E+00  0.00000000E+00  0.00000000E+00
  0.00000000E+00  0.00000000E+00  0.00000000E+00
  0.00000000E+00  0.00000000E+00  0.00000000E+00
  0.00000000E+00  0.00000000E+00  0.00000000E+00
  0.00000000E+00  0.00000000E+00  0.00000000E+00
  0.00000000E+00  0.00000000E+00  0.00000000E+00
  0.00000000E+00  0.00000000E+00  0.00000000E+00
  0.00000000E+00  0.00000000E+00  0.00000000E+00
