Zn96 H18 O96
1.0
  12.9159907272337371    0.0000000000000000    0.0000000000000008
  -6.4575301003323453   11.1858448318051593    0.0000000000000008
   0.0000000000000000    0.0000000000000000   41.8715658066988325
Zn O H O H
96 95 16 1 2
Selective dynamics
direct
   0.0832911579048172    0.1666527342154041    0.4125754215422432 T T T Zn
   0.0827911188116417    0.4155883014456522    0.4125391301679144 T T T Zn
   0.0835135909100231    0.6667618080549715    0.4126400822378642 T T T Zn
   0.0827864025470433    0.9172123417964501    0.4125391115562210 T T T Zn
   0.3319465781816717    0.1638541531593631    0.4132469317715461 T T T Zn
   0.3319485412357892    0.4181063018996198    0.4132463755384067 T T T Zn
   0.3332386836864387    0.6667619827708791    0.4126399765622821 T T T Zn
   0.3332380554417682    0.9164857681456198    0.4126401832134264 T T T Zn
   0.5818954167065158    0.1638546870480866    0.4132466822192171 T T T Zn
   0.5833292246206767    0.4166705883164994    0.4135627068272072 T T T Zn
   0.5818926791907160    0.6680498301660123    0.4132464736411023 T T T Zn
   0.5844124329807698    0.9172091407288931    0.4125391919691808 T T T Zn
   0.8333471722993977    0.1666490096687170    0.4125752817142967 T T T Zn
   0.8361436852738321    0.4181014971419970    0.4132467247705307 T T T Zn
   0.8361432558703612    0.6680506859269570    0.4132470964115598 T T T Zn
   0.8333464521161247    0.9167062366769160    0.4125751669940739 T T T Zn
   0.1654870186667452    0.0814786905321654    0.3469385546269024 T T T Zn
   0.1654916085081268    0.3340182750073311    0.3469375355817164 T T T Zn
   0.1670131275690210    0.5840291805413216    0.3479194713019922 T T T Zn
   0.1670114625227086    0.8329846536035959    0.3479203231827555 T T T Zn
   0.4160405007849377    0.0820971253689180    0.3476091616826906 T T T Zn
   0.3834555052186772    0.3167458417485989    0.3520488839553054 T T T Zn
   0.4160432348233626    0.5839548264224703    0.3476083755254891 T T T Zn
   0.4159710566395134    0.8329863723985582    0.3479191961407296 T T T Zn
   0.6659811225214582    0.0814758312709003    0.3469389160583987 T T T Zn
   0.6832525139371199    0.3167257819493514    0.3520479882609067 T T T Zn
   0.6832463037486036    0.6165429578501076    0.3520487824178106 T T T Zn
   0.6659808553611839    0.8345056294355544    0.3469371027042030 T T T Zn
   0.9166648466558343    0.0833334671682380    0.3478922975106614 T T T Zn
   0.9185246487184671    0.3340179113385346    0.3469395275637838 T T T Zn
   0.9178955127416160    0.5839503505789025    0.3476091117765208 T T T Zn
   0.9185193842442202    0.8345090338904697    0.3469385361207387 T T T Zn
   0.0833421456183316    0.1666568756581057    0.5388641089449635 F F F Zn
   0.0833421456183316    0.4166568756581057    0.5388641089449635 F F F Zn
   0.0833421456183316    0.6666568756581057    0.5388641089449635 F F F Zn
   0.0833421456183316    0.9166568756581057    0.5388641089449635 F F F Zn
   0.3333421456183316    0.1666568756581057    0.5388641089449635 F F F Zn
   0.3333421456183316    0.4166568756581057    0.5388641089449635 F F F Zn
   0.3333421456183316    0.6666568756581057    0.5388641089449635 F F F Zn
   0.3333421456183316    0.9166568756581057    0.5388641089449635 F F F Zn
   0.5833421456183316    0.1666568756581057    0.5388641089449635 F F F Zn
   0.5833421456183316    0.4166568756581057    0.5388641089449635 F F F Zn
   0.5833421456183316    0.6666568756581057    0.5388641089449635 F F F Zn
   0.5833421456183316    0.9166568756581057    0.5388641089449635 F F F Zn
   0.8333421456183316    0.1666568756581057    0.5388641089449635 F F F Zn
   0.8333421456183316    0.4166568756581057    0.5388641089449635 F F F Zn
   0.8333421456183316    0.6666568756581057    0.5388641089449635 F F F Zn
   0.8333421456183316    0.9166568756581057    0.5388641089449635 F F F Zn
   0.1666567714389657    0.0833423488661396    0.4763640990662595 F F F Zn
   0.1666567714389657    0.3333423488661396    0.4763640990662595 F F F Zn
   0.1666567714389657    0.5833423488661396    0.4763640990662595 F F F Zn
   0.1666567714389657    0.8333423488661396    0.4763640990662595 F F F Zn
   0.4166567714389656    0.0833423488661396    0.4763640990662595 F F F Zn
   0.4166567714389657    0.3333423488661396    0.4763640990662595 F F F Zn
   0.4166567714389656    0.5833423488661396    0.4763640990662595 F F F Zn
   0.4166567714389657    0.8333423488661396    0.4763640990662595 F F F Zn
   0.6666567714389657    0.0833423488661396    0.4763640990662595 F F F Zn
   0.6666567714389657    0.3333423488661396    0.4763640990662595 F F F Zn
   0.6666567714389657    0.5833423488661396    0.4763640990662595 F F F Zn
   0.6666567714389657    0.8333423488661396    0.4763640990662594 F F F Zn
   0.9166567714389657    0.0833423488661396    0.4763640990662595 F F F Zn
   0.9166567714389656    0.3333423488661396    0.4763640990662595 F F F Zn
   0.9166567714389656    0.5833423488661396    0.4763640990662594 F F F Zn
   0.9166567714389657    0.8333423488661396    0.4763640990662594 F F F Zn
   0.0833420212035350    0.1666567869075877    0.6638641089449635 F F F Zn
   0.0833420212035350    0.4166567869075877    0.6638641089449635 F F F Zn
   0.0833420212035350    0.6666567869075877    0.6638641089449635 F F F Zn
   0.0833420212035350    0.9166567869075877    0.6638641089449635 F F F Zn
   0.3333420212035351    0.1666567869075877    0.6638641089449635 F F F Zn
   0.3333420212035351    0.4166567869075877    0.6638641089449635 F F F Zn
   0.3333420212035351    0.6666567869075877    0.6638641089449635 F F F Zn
   0.3333420212035350    0.9166567869075877    0.6638641089449635 F F F Zn
   0.5833420212035350    0.1666567869075877    0.6638641089449635 F F F Zn
   0.5833420212035350    0.4166567869075877    0.6638641089449635 F F F Zn
   0.5833420212035350    0.6666567869075877    0.6638641089449635 F F F Zn
   0.5833420212035350    0.9166567869075877    0.6638641089449635 F F F Zn
   0.8333420212035350    0.1666567869075877    0.6638641089449635 F F F Zn
   0.8333420212035350    0.4166567869075877    0.6638641089449635 F F F Zn
   0.8333420212035350    0.6666567869075877    0.6638641089449635 F F F Zn
   0.8333420212035350    0.9166567869075877    0.6638641089449635 F F F Zn
   0.1666566470241690    0.0833422601156144    0.6013640990662595 F F F Zn
   0.1666566470241690    0.3333422601156215    0.6013640990662595 F F F Zn
   0.1666566470241690    0.5833422601156144    0.6013640990662595 F F F Zn
   0.1666566470241691    0.8333422601156145    0.6013640990662595 F F F Zn
   0.4166566470241690    0.0833422601156144    0.6013640990662595 F F F Zn
   0.4166566470241689    0.3333422601156215    0.6013640990662595 F F F Zn
   0.4166566470241690    0.5833422601156144    0.6013640990662595 F F F Zn
   0.4166566470241690    0.8333422601156145    0.6013640990662595 F F F Zn
   0.6666566470241690    0.0833422601156144    0.6013640990662595 F F F Zn
   0.6666566470241690    0.3333422601156215    0.6013640990662595 F F F Zn
   0.6666566470241690    0.5833422601156144    0.6013640990662595 F F F Zn
   0.6666566470241690    0.8333422601156145    0.6013640990662595 F F F Zn
   0.9166566470241689    0.0833422601156144    0.6013640990662595 F F F Zn
   0.9166566470241689    0.3333422601156215    0.6013640990662595 F F F Zn
   0.9166566470241689    0.5833422601156144    0.6013640990662595 F F F Zn
   0.9166566470241690    0.8333422601156145    0.6013640990662595 F F F Zn
   0.0831547002690556    0.1665863762118462    0.3386428359615082 T T T O
   0.0842709762579545    0.4185549065059675    0.3380684584864113 T T T O
   0.0843741123005657    0.6671949483905379    0.3388950749647748 T T T O
   0.0842681370353803    0.9157277819861919    0.3380700453390446 T T T O
   0.3333242902337686    0.1644485001629477    0.3365489748856234 T T T O
   0.3333289729036935    0.4188697428472423    0.3365511335823541 T T T O
   0.3328003272196227    0.6671994742314027    0.3388920947064094 T T T O
   0.3328011508399911    0.9156200533604633    0.3388940948109109 T T T O
   0.5811224385502882    0.1644625521241920    0.3365532584041517 T T T O
   0.5811323725495184    0.6666696009916677    0.3365508755195847 T T T O
   0.5814429193412848    0.9157252736824191    0.3380669704627124 T T T O
   0.8334134550494242    0.1665827214362565    0.3386437440591763 T T T O
   0.8355424144666088    0.4188816424867383    0.3365518159167281 T T T O
   0.8355535554559665    0.6666714513161622    0.3365486094060657 T T T O
   0.8334101931692217    0.9168391303943935    0.3386409730345932 T T T O
   0.1673370989444862    0.0839864397727368    0.3977854645918981 T T T O
   0.1673373056374956    0.3333545198907046    0.3977845257007218 T T T O
   0.1664057127199072    0.5828159589901958    0.3983288272490668 T T T O
   0.1664050551921790    0.8335947901006476    0.3983296460983041 T T T O
   0.4169593543270125    0.0839268882706108    0.3979060125568168 T T T O
   0.4177550778355794    0.3338809703788641    0.3982237404966540 T T T O
   0.4169601144502124    0.5830389413141148    0.3979063380837645 T T T O
   0.4171848377013987    0.8335947892997382    0.3983288154028629 T T T O
   0.6666428207267998    0.0839851941986183    0.3977840322513373 T T T O
   0.6661176472989538    0.3338798356559849    0.3982232752454777 T T T O
   0.6661175115514339    0.5822445003137986    0.3982234453022855 T T T O
   0.6666450727821881    0.8326599509869794    0.3977837696182859 T T T O
   0.9166643221694740    0.0833330528650436    0.3984198532126300 T T T O
   0.9160155940469821    0.3333565723927308    0.3977849154582742 T T T O
   0.9160712442853836    0.5830379000342916    0.3979060226467936 T T T O
   0.9160101783321366    0.8326597624606507    0.3977846736749626 T T T O
   0.0833222007698211    0.1666770668236666    0.4611358956743672 F F F O
   0.0833222007698211    0.4166770668236666    0.4611358956743672 F F F O
   0.0833222007698211    0.6666770668236666    0.4611358956743672 F F F O
   0.0833222007698211    0.9166770668236666    0.4611358956743672 F F F O
   0.3333222007698211    0.1666770668236666    0.4611358956743672 F F F O
   0.3333222007698211    0.4166770668236666    0.4611358956743672 F F F O
   0.3333222007698211    0.6666770668236666    0.4611358956743672 F F F O
   0.3333222007698211    0.9166770668236666    0.4611358956743672 F F F O
   0.5833222007698211    0.1666770668236666    0.4611358956743672 F F F O
   0.5833222007698211    0.4166770668236666    0.4611358956743672 F F F O
   0.5833222007698211    0.6666770668236666    0.4611358956743672 F F F O
   0.5833222007698211    0.9166770668236666    0.4611358956743671 F F F O
   0.8333222007698210    0.1666770668236666    0.4611358956743672 F F F O
   0.8333222007698211    0.4166770668236666    0.4611358956743672 F F F O
   0.8333222007698209    0.6666770668236666    0.4611358956743671 F F F O
   0.8333222007698210    0.9166770668236666    0.4611358956743671 F F F O
   0.1666768765361368    0.0833222886438278    0.5236358963144099 F F F O
   0.1666768765361368    0.3333222886438278    0.5236358963144099 F F F O
   0.1666768765361368    0.5833222886438278    0.5236358963144099 F F F O
   0.1666768765361367    0.8333222886438278    0.5236358963144099 F F F O
   0.4166768765361368    0.0833222886438278    0.5236358963144099 F F F O
   0.4166768765361367    0.3333222886438278    0.5236358963144099 F F F O
   0.4166768765361368    0.5833222886438278    0.5236358963144099 F F F O
   0.4166768765361367    0.8333222886438278    0.5236358963144099 F F F O
   0.6666768765361367    0.0833222886438278    0.5236358963144099 F F F O
   0.6666768765361368    0.3333222886438278    0.5236358963144099 F F F O
   0.6666768765361368    0.5833222886438278    0.5236358963144099 F F F O
   0.6666768765361368    0.8333222886438278    0.5236358963144099 F F F O
   0.9166768765361367    0.0833222886438278    0.5236358963144099 F F F O
   0.9166768765361367    0.3333222886438278    0.5236358963144099 F F F O
   0.9166768765361367    0.5833222886438278    0.5236358963144099 F F F O
   0.9166768765361367    0.8333222886438278    0.5236358963144099 F F F O
   0.0833220763550244    0.1666769780731485    0.5861358956743672 F F F O
   0.0833220763550244    0.4166769780731485    0.5861358956743672 F F F O
   0.0833220763550244    0.6666769780731485    0.5861358956743672 F F F O
   0.0833220763550244    0.9166769780731485    0.5861358956743672 F F F O
   0.3333220763550244    0.1666769780731485    0.5861358956743672 F F F O
   0.3333220763550244    0.4166769780731485    0.5861358956743672 F F F O
   0.3333220763550245    0.6666769780731485    0.5861358956743672 F F F O
   0.3333220763550244    0.9166769780731485    0.5861358956743672 F F F O
   0.5833220763550244    0.1666769780731485    0.5861358956743672 F F F O
   0.5833220763550243    0.4166769780731485    0.5861358956743672 F F F O
   0.5833220763550244    0.6666769780731485    0.5861358956743672 F F F O
   0.5833220763550244    0.9166769780731485    0.5861358956743672 F F F O
   0.8333220763550243    0.1666769780731485    0.5861358956743672 F F F O
   0.8333220763550242    0.4166769780731485    0.5861358956743672 F F F O
   0.8333220763550244    0.6666769780731485    0.5861358956743672 F F F O
   0.8333220763550244    0.9166769780731485    0.5861358956743672 F F F O
   0.1666767521213401    0.0833221998933027    0.6486358963144099 F F F O
   0.1666767521213401    0.3333221998933027    0.6486358963144099 F F F O
   0.1666767521213401    0.5833221998933027    0.6486358963144099 F F F O
   0.1666767521213400    0.8333221998933026    0.6486358963144099 F F F O
   0.4166767521213401    0.0833221998933027    0.6486358963144099 F F F O
   0.4166767521213401    0.3333221998933027    0.6486358963144099 F F F O
   0.4166767521213400    0.5833221998933027    0.6486358963144099 F F F O
   0.4166767521213400    0.8333221998933026    0.6486358963144099 F F F O
   0.6666767521213401    0.0833221998933027    0.6486358963144099 F F F O
   0.6666767521213401    0.3333221998933027    0.6486358963144099 F F F O
   0.6666767521213401    0.5833221998933027    0.6486358963144099 F F F O
   0.6666767521213401    0.8333221998933026    0.6486358963144099 F F F O
   0.9166767521213400    0.0833221998933027    0.6486358963144099 F F F O
   0.9166767521213400    0.3333221998933027    0.6486358963144099 F F F O
   0.9166767521213401    0.5833221998933027    0.6486358963144099 F F F O
   0.9166767521213400    0.8333221998933026    0.6486358963144099 F F F O
   0.0833425000000005    0.1666574999999995    0.7015944380000008 F F F H
   0.0833425000000005    0.4166574999999995    0.7015944380000008 F F F H
   0.0833425000000005    0.6666574999999995    0.7015944380000008 F F F H
   0.0833425000000004    0.9166574999999995    0.7015944380000008 F F F H
   0.3333425000000005    0.1666574999999995    0.7015944380000008 F F F H
   0.3333425000000005    0.4166574999999995    0.7015944380000008 F F F H
   0.3333425000000004    0.6666574999999995    0.7015944380000008 F F F H
   0.3333425000000004    0.9166574999999995    0.7015944380000008 F F F H
   0.5833425000000005    0.1666574999999995    0.7015944380000008 F F F H
   0.5833425000000005    0.4166574999999995    0.7015944380000008 F F F H
   0.5833425000000005    0.6666574999999995    0.7015944380000008 F F F H
   0.5833425000000005    0.9166574999999995    0.7015944380000008 F F F H
   0.8333425000000004    0.1666574999999995    0.7015944380000008 F F F H
   0.8333425000000005    0.4166574999999995    0.7015944380000008 F F F H
   0.8333425000000005    0.6666574999999995    0.7015944380000008 F F F H
   0.8333425000000005    0.9166574999999995    0.7015944380000008 F F F H
   0.5320600910036922    0.3929327058708562    0.3025646366956651 T T T O
   0.5333424999999997    0.3916575000000003    0.2793595492746317 T T T H
   0.5737855086126197    0.3511844549321171    0.3090295841793509 T T T H
