Zn96 H16 O96                            
    1.000000000000000     
    12.9159907272337371    0.0000000000000000    0.0000000000000008
    -6.4575301003323453   11.1858448318051593    0.0000000000000008
     0.0000000000000000    0.0000000000000000   41.8715658066988325
   Zn   O    H    O    H 
    96    96    16     2     2
Selective dynamics
Direct
  0.0833422700331283  0.1666569644086167  0.4138641089449635   F   F   F
  0.0833422700331283  0.4166569644086238  0.4138641089449635   F   F   F
  0.0833422700331283  0.6666569644086167  0.4138641089449635   F   F   F
  0.0833422700331283  0.9166569644086167  0.4138641089449635   F   F   F
  0.3333422700331283  0.1666569644086167  0.4138641089449635   F   F   F
  0.3333422700331283  0.4166569644086238  0.4138641089449635   F   F   F
  0.3333422700331283  0.6666569644086167  0.4138641089449635   F   F   F
  0.3333422700331283  0.9166569644086167  0.4138641089449635   F   F   F
  0.5833422700331283  0.1666569644086167  0.4138641089449635   F   F   F
  0.5833422700331283  0.4166569644086238  0.4138641089449635   F   F   F
  0.5833422700331283  0.6666569644086167  0.4138641089449635   F   F   F
  0.5833422700331283  0.9166569644086167  0.4138641089449635   F   F   F
  0.8333422700331283  0.1666569644086167  0.4138641089449635   F   F   F
  0.8333422700331283  0.4166569644086238  0.4138641089449635   F   F   F
  0.8333422700331283  0.6666569644086167  0.4138641089449635   F   F   F
  0.8333422700331283  0.9166569644086167  0.4138641089449635   F   F   F
  0.1666568958537624  0.0833424376166505  0.3513640990662594   F   F   F
  0.1666568958537624  0.3333424376166505  0.3513640990662594   F   F   F
  0.1666568958537624  0.5833424376166505  0.3513640990662594   F   F   F
  0.1666568958537624  0.8333424376166505  0.3513640990662594   F   F   F
  0.4166568958537624  0.0833424376166505  0.3513640990662594   F   F   F
  0.4166568958537624  0.3333424376166505  0.3513640990662594   F   F   F
  0.4166568958537624  0.5833424376166505  0.3513640990662594   F   F   F
  0.4166568958537624  0.8333424376166505  0.3513640990662594   F   F   F
  0.6666568958537624  0.0833424376166505  0.3513640990662594   F   F   F
  0.6666568958537624  0.3333424376166505  0.3513640990662594   F   F   F
  0.6666568958537624  0.5833424376166505  0.3513640990662594   F   F   F
  0.6666568958537624  0.8333424376166505  0.3513640990662594   F   F   F
  0.9166568958537624  0.0833424376166505  0.3513640990662594   F   F   F
  0.9166568958537624  0.3333424376166505  0.3513640990662594   F   F   F
  0.9166568958537624  0.5833424376166505  0.3513640990662594   F   F   F
  0.9166568958537624  0.8333424376166505  0.3513640990662594   F   F   F
  0.0833421456183316  0.1666568756581057  0.5388641089449635   F   F   F
  0.0833421456183316  0.4166568756581057  0.5388641089449635   F   F   F
  0.0833421456183316  0.6666568756581057  0.5388641089449635   F   F   F
  0.0833421456183316  0.9166568756581057  0.5388641089449635   F   F   F
  0.3333421456183316  0.1666568756581057  0.5388641089449635   F   F   F
  0.3333421456183316  0.4166568756581057  0.5388641089449635   F   F   F
  0.3333421456183316  0.6666568756581057  0.5388641089449635   F   F   F
  0.3333421456183316  0.9166568756581057  0.5388641089449635   F   F   F
  0.5833421456183316  0.1666568756581057  0.5388641089449635   F   F   F
  0.5833421456183316  0.4166568756581057  0.5388641089449635   F   F   F
  0.5833421456183316  0.6666568756581057  0.5388641089449635   F   F   F
  0.5833421456183316  0.9166568756581057  0.5388641089449635   F   F   F
  0.8333421456183316  0.1666568756581057  0.5388641089449635   F   F   F
  0.8333421456183316  0.4166568756581057  0.5388641089449635   F   F   F
  0.8333421456183316  0.6666568756581057  0.5388641089449635   F   F   F
  0.8333421456183316  0.9166568756581057  0.5388641089449635   F   F   F
  0.1666567714389657  0.0833423488661396  0.4763640990662594   F   F   F
  0.1666567714389657  0.3333423488661396  0.4763640990662594   F   F   F
  0.1666567714389657  0.5833423488661396  0.4763640990662594   F   F   F
  0.1666567714389657  0.8333423488661396  0.4763640990662594   F   F   F
  0.4166567714389657  0.0833423488661396  0.4763640990662594   F   F   F
  0.4166567714389657  0.3333423488661396  0.4763640990662594   F   F   F
  0.4166567714389657  0.5833423488661396  0.4763640990662594   F   F   F
  0.4166567714389657  0.8333423488661396  0.4763640990662594   F   F   F
  0.6666567714389657  0.0833423488661396  0.4763640990662594   F   F   F
  0.6666567714389657  0.3333423488661396  0.4763640990662594   F   F   F
  0.6666567714389657  0.5833423488661396  0.4763640990662594   F   F   F
  0.6666567714389657  0.8333423488661396  0.4763640990662594   F   F   F
  0.9166567714389657  0.0833423488661396  0.4763640990662594   F   F   F
  0.9166567714389657  0.3333423488661396  0.4763640990662594   F   F   F
  0.9166567714389657  0.5833423488661396  0.4763640990662594   F   F   F
  0.9166567714389657  0.8333423488661396  0.4763640990662594   F   F   F
  0.0728490340791978  0.1714444962733097  0.6702144011504174   T   T   T
  0.0811905522198799  0.4097919031319250  0.6640203246369936   T   T   T
  0.0973952119580730  0.6799442166459286  0.6716389701189556   T   T   T
  0.0833025628052440  0.9194908339185801  0.6577777218978014   T   T   T
  0.3302543689184390  0.1615571967118896  0.6596418517715108   T   T   T
  0.3472691060849868  0.4234952371309006  0.6677438558057673   T   T   T
  0.3303409961712944  0.6679247880677224  0.6616163743028736   T   T   T
  0.3198356507316475  0.9001586213435644  0.6726897614974376   T   T   T
  0.5821961887599798  0.1653482970058633  0.6618075641151790   T   T   T
  0.5772212694915453  0.4213336149122071  0.6679595780172392   T   T   T
  0.5889341511203412  0.6596531483406238  0.6712454758151267   T   T   T
  0.5860709473490715  0.9187985151693283  0.6585325318811286   T   T   T
  0.8466754642133196  0.1692040716276324  0.6709814651894206   T   T   T
  0.8356265646577015  0.4234708024672429  0.6612661746105388   T   T   T
  0.8308421819452576  0.6727410504143378  0.6675401133855914   T   T   T
  0.8253940588144886  0.9027793141496048  0.6681851091023461   T   T   T
  0.1641864179005523  0.0865881625787424  0.6021857019857180   T   T   T
  0.1695222444028062  0.3342994593406274  0.6040528860609271   T   T   T
  0.1643329297223630  0.5821834286847931  0.6028854070268181   T   T   T
  0.1669692555521252  0.8325711646398375  0.6009464653185503   T   T   T
  0.4151247743002457  0.0791750485703133  0.6037974775565402   T   T   T
  0.4170355921288404  0.3338393014370524  0.6012515235709799   T   T   T
  0.4185910517943441  0.5840986900736098  0.6035121366296252   T   T   T
  0.4155133218816758  0.8336046660480676  0.6019222982635384   T   T   T
  0.6711117617412583  0.0861499666039975  0.6028894821939517   T   T   T
  0.6661523706755546  0.3354122161893969  0.6034191654331096   T   T   T
  0.6672343743123932  0.5830710289176437  0.6020361801282448   T   T   T
  0.6657704659729831  0.8295931342354521  0.6028346683420835   T   T   T
  0.9149274310120035  0.0805524767297001  0.6041369215613983   T   T   T
  0.9165937462104168  0.3324961646736213  0.6022785006697760   T   T   T
  0.9192853916828270  0.5876224501073608  0.6051111259311028   T   T   T
  0.9141958339145191  0.8325823226585669  0.6005754005818460   T   T   T
  0.0833223251846178  0.1666771555741846  0.3361358956743672   F   F   F
  0.0833223251846178  0.4166771555741846  0.3361358956743672   F   F   F
  0.0833223251846178  0.6666771555741775  0.3361358956743672   F   F   F
  0.0833223251846178  0.9166771555741775  0.3361358956743672   F   F   F
  0.3333223251846178  0.1666771555741846  0.3361358956743672   F   F   F
  0.3333223251846178  0.4166771555741846  0.3361358956743672   F   F   F
  0.3333223251846178  0.6666771555741775  0.3361358956743672   F   F   F
  0.3333223251846178  0.9166771555741775  0.3361358956743672   F   F   F
  0.5833223251846178  0.1666771555741846  0.3361358956743672   F   F   F
  0.5833223251846178  0.4166771555741846  0.3361358956743672   F   F   F
  0.5833223251846178  0.6666771555741775  0.3361358956743672   F   F   F
  0.5833223251846178  0.9166771555741775  0.3361358956743672   F   F   F
  0.8333223251846178  0.1666771555741846  0.3361358956743672   F   F   F
  0.8333223251846178  0.4166771555741846  0.3361358956743672   F   F   F
  0.8333223251846178  0.6666771555741775  0.3361358956743672   F   F   F
  0.8333223251846178  0.9166771555741775  0.3361358956743672   F   F   F
  0.1666770009509335  0.0833223773943388  0.3986358963144099   F   F   F
  0.1666770009509335  0.3333223773943388  0.3986358963144099   F   F   F
  0.1666770009509335  0.5833223773943388  0.3986358963144099   F   F   F
  0.1666770009509335  0.8333223773943388  0.3986358963144099   F   F   F
  0.4166770009509335  0.0833223773943388  0.3986358963144099   F   F   F
  0.4166770009509335  0.3333223773943388  0.3986358963144099   F   F   F
  0.4166770009509335  0.5833223773943388  0.3986358963144099   F   F   F
  0.4166770009509335  0.8333223773943388  0.3986358963144099   F   F   F
  0.6666770009509335  0.0833223773943388  0.3986358963144099   F   F   F
  0.6666770009509335  0.3333223773943388  0.3986358963144099   F   F   F
  0.6666770009509335  0.5833223773943388  0.3986358963144099   F   F   F
  0.6666770009509335  0.8333223773943388  0.3986358963144099   F   F   F
  0.9166770009509335  0.0833223773943388  0.3986358963144099   F   F   F
  0.9166770009509335  0.3333223773943388  0.3986358963144099   F   F   F
  0.9166770009509335  0.5833223773943388  0.3986358963144099   F   F   F
  0.9166770009509335  0.8333223773943388  0.3986358963144099   F   F   F
  0.0833222007698211  0.1666770668236666  0.4611358956743672   F   F   F
  0.0833222007698211  0.4166770668236666  0.4611358956743672   F   F   F
  0.0833222007698211  0.6666770668236666  0.4611358956743672   F   F   F
  0.0833222007698211  0.9166770668236666  0.4611358956743672   F   F   F
  0.3333222007698211  0.1666770668236666  0.4611358956743672   F   F   F
  0.3333222007698211  0.4166770668236666  0.4611358956743672   F   F   F
  0.3333222007698211  0.6666770668236666  0.4611358956743672   F   F   F
  0.3333222007698211  0.9166770668236666  0.4611358956743672   F   F   F
  0.5833222007698211  0.1666770668236666  0.4611358956743672   F   F   F
  0.5833222007698211  0.4166770668236666  0.4611358956743672   F   F   F
  0.5833222007698211  0.6666770668236666  0.4611358956743672   F   F   F
  0.5833222007698211  0.9166770668236666  0.4611358956743672   F   F   F
  0.8333222007698211  0.1666770668236666  0.4611358956743672   F   F   F
  0.8333222007698211  0.4166770668236666  0.4611358956743672   F   F   F
  0.8333222007698211  0.6666770668236666  0.4611358956743672   F   F   F
  0.8333222007698211  0.9166770668236666  0.4611358956743672   F   F   F
  0.1666768765361368  0.0833222886438278  0.5236358963144099   F   F   F
  0.1666768765361368  0.3333222886438278  0.5236358963144099   F   F   F
  0.1666768765361368  0.5833222886438278  0.5236358963144099   F   F   F
  0.1666768765361368  0.8333222886438278  0.5236358963144099   F   F   F
  0.4166768765361368  0.0833222886438278  0.5236358963144099   F   F   F
  0.4166768765361368  0.3333222886438278  0.5236358963144099   F   F   F
  0.4166768765361368  0.5833222886438278  0.5236358963144099   F   F   F
  0.4166768765361368  0.8333222886438278  0.5236358963144099   F   F   F
  0.6666768765361368  0.0833222886438278  0.5236358963144099   F   F   F
  0.6666768765361368  0.3333222886438278  0.5236358963144099   F   F   F
  0.6666768765361368  0.5833222886438278  0.5236358963144099   F   F   F
  0.6666768765361368  0.8333222886438278  0.5236358963144099   F   F   F
  0.9166768765361368  0.0833222886438278  0.5236358963144099   F   F   F
  0.9166768765361368  0.3333222886438278  0.5236358963144099   F   F   F
  0.9166768765361368  0.5833222886438278  0.5236358963144099   F   F   F
  0.9166768765361368  0.8333222886438278  0.5236358963144099   F   F   F
  0.0812099391614467  0.1688327972796344  0.5874452002449999   T   T   T
  0.0840891685008387  0.4154668697300323  0.5875929453350466   T   T   T
  0.0817731012552017  0.6648496826023589  0.5869782280685598   T   T   T
  0.0840077042823211  0.9194648911400023  0.5869973602321323   T   T   T
  0.3323066986353638  0.1635190761984759  0.5878863302600834   T   T   T
  0.3338473566658706  0.4180896230868498  0.5871074812798298   T   T   T
  0.3323128621529747  0.6657052561283550  0.5876441200920155   T   T   T
  0.3340201425992575  0.9170475186914473  0.5864295214058828   T   T   T
  0.5833034452442689  0.1669468385964521  0.5886713896337383   T   T   T
  0.5835906557551382  0.4158536752753577  0.5866815170282891   T   T   T
  0.5826879167420529  0.6653331931369948  0.5866346709412653   T   T   T
  0.5847064257058463  0.9181220331826836  0.5879500829095008   T   T   T
  0.8351130030432969  0.1664948489550397  0.5870907303314610   T   T   T
  0.8340290652443230  0.4194719507983322  0.5886158453586461   T   T   T
  0.8346420869366042  0.6651709329573094  0.5868314210006460   T   T   T
  0.8309094489930047  0.9164861687079693  0.5866013472647111   T   T   T
  0.1606689778620307  0.0902128924041534  0.6534168261164623   T   T   T
  0.1786269988903655  0.3381998476336463  0.6538000497980434   T   T   T
  0.1605180185853641  0.5787748045952128  0.6524667529204677   T   T   T
  0.1666394336791157  0.8360521747468184  0.6485156654576585   T   T   T
  0.4114322710501881  0.0713120850965723  0.6549293190059799   T   T   T
  0.4152557593177448  0.3281439676871614  0.6494459538532880   T   T   T
  0.4216313303001016  0.5906374421143994  0.6523423679579707   T   T   T
  0.4167796716889001  0.8370095440666177  0.6512816094057641   T   T   T
  0.6767885891122560  0.0899569723561200  0.6542126458615982   T   T   T
  0.6632823364707221  0.3366831769704817  0.6556225978194092   T   T   T
  0.6696047910728851  0.5812276821339850  0.6492569288025152   T   T   T
  0.6592979902218588  0.8242939539655083  0.6516121039623926   T   T   T
  0.9086169004027340  0.0685478558197019  0.6524794188551937   T   T   T
  0.9132785894260920  0.3324763866495672  0.6517201268177786   T   T   T
  0.9245268309713381  0.5947911933680174  0.6565239676035404   T   T   T
  0.9170367703214950  0.8338197200839232  0.6485163518632859   T   T   T
  0.0833225000000013  0.1666774999999987  0.3114693200000005   F   F   F
  0.0833225000000013  0.4166774999999987  0.3114693200000005   F   F   F
  0.0833225000000013  0.6666774999999987  0.3114693200000005   F   F   F
  0.0833225000000013  0.9166774999999987  0.3114693200000005   F   F   F
  0.3333225000000013  0.1666774999999987  0.3114693200000005   F   F   F
  0.3333225000000013  0.4166774999999987  0.3114693200000005   F   F   F
  0.3333225000000013  0.6666774999999987  0.3114693200000005   F   F   F
  0.3333225000000013  0.9166774999999987  0.3114693200000005   F   F   F
  0.5833225000000013  0.1666774999999987  0.3114693200000005   F   F   F
  0.5833225000000013  0.4166774999999987  0.3114693200000005   F   F   F
  0.5833225000000013  0.6666774999999987  0.3114693200000005   F   F   F
  0.5833225000000013  0.9166774999999987  0.3114693200000005   F   F   F
  0.8333225000000013  0.1666774999999987  0.3114693200000005   F   F   F
  0.8333225000000013  0.4166774999999987  0.3114693200000005   F   F   F
  0.8333225000000013  0.6666774999999987  0.3114693200000005   F   F   F
  0.8333225000000013  0.9166774999999987  0.3114693200000005   F   F   F
  0.4973170256340751  0.4910300347614438  0.6992011726900955   T   T   T
  0.7606602099797897  0.7533859680570600  0.6990492683681637   T   T   T
  0.4953265715221846  0.4853393013689811  0.7224182234579501   T   T   T
  0.7678052698572202  0.7566882168429530  0.7222068739163419   T   T   T
 
  0.00000000E+00  0.00000000E+00  0.00000000E+00
  0.00000000E+00  0.00000000E+00  0.00000000E+00
  0.00000000E+00  0.00000000E+00  0.00000000E+00
  0.00000000E+00  0.00000000E+00  0.00000000E+00
  0.00000000E+00  0.00000000E+00  0.00000000E+00
  0.00000000E+00  0.00000000E+00  0.00000000E+00
  0.00000000E+00  0.00000000E+00  0.00000000E+00
  0.00000000E+00  0.00000000E+00  0.00000000E+00
  0.00000000E+00  0.00000000E+00  0.00000000E+00
  0.00000000E+00  0.00000000E+00  0.00000000E+00
  0.00000000E+00  0.00000000E+00  0.00000000E+00
  0.00000000E+00  0.00000000E+00  0.00000000E+00
  0.00000000E+00  0.00000000E+00  0.00000000E+00
  0.00000000E+00  0.00000000E+00  0.00000000E+00
  0.00000000E+00  0.00000000E+00  0.00000000E+00
  0.00000000E+00  0.00000000E+00  0.00000000E+00
  0.00000000E+00  0.00000000E+00  0.00000000E+00
  0.00000000E+00  0.00000000E+00  0.00000000E+00
  0.00000000E+00  0.00000000E+00  0.00000000E+00
  0.00000000E+00  0.00000000E+00  0.00000000E+00
  0.00000000E+00  0.00000000E+00  0.00000000E+00
  0.00000000E+00  0.00000000E+00  0.00000000E+00
  0.00000000E+00  0.00000000E+00  0.00000000E+00
  0.00000000E+00  0.00000000E+00  0.00000000E+00
  0.00000000E+00  0.00000000E+00  0.00000000E+00
  0.00000000E+00  0.00000000E+00  0.00000000E+00
  0.00000000E+00  0.00000000E+00  0.00000000E+00
  0.00000000E+00  0.00000000E+00  0.00000000E+00
  0.00000000E+00  0.00000000E+00  0.00000000E+00
  0.00000000E+00  0.00000000E+00  0.00000000E+00
  0.00000000E+00  0.00000000E+00  0.00000000E+00
  0.00000000E+00  0.00000000E+00  0.00000000E+00
  0.00000000E+00  0.00000000E+00  0.00000000E+00
  0.00000000E+00  0.00000000E+00  0.00000000E+00
  0.00000000E+00  0.00000000E+00  0.00000000E+00
  0.00000000E+00  0.00000000E+00  0.00000000E+00
  0.00000000E+00  0.00000000E+00  0.00000000E+00
  0.00000000E+00  0.00000000E+00  0.00000000E+00
  0.00000000E+00  0.00000000E+00  0.00000000E+00
  0.00000000E+00  0.00000000E+00  0.00000000E+00
  0.00000000E+00  0.00000000E+00  0.00000000E+00
  0.00000000E+00  0.00000000E+00  0.00000000E+00
  0.00000000E+00  0.00000000E+00  0.00000000E+00
  0.00000000E+00  0.00000000E+00  0.00000000E+00
  0.00000000E+00  0.00000000E+00  0.00000000E+00
  0.00000000E+00  0.00000000E+00  0.00000000E+00
  0.00000000E+00  0.00000000E+00  0.00000000E+00
  0.00000000E+00  0.00000000E+00  0.00000000E+00
  0.00000000E+00  0.00000000E+00  0.00000000E+00
  0.00000000E+00  0.00000000E+00  0.00000000E+00
  0.00000000E+00  0.00000000E+00  0.00000000E+00
  0.00000000E+00  0.00000000E+00  0.00000000E+00
  0.00000000E+00  0.00000000E+00  0.00000000E+00
  0.00000000E+00  0.00000000E+00  0.00000000E+00
  0.00000000E+00  0.00000000E+00  0.00000000E+00
  0.00000000E+00  0.00000000E+00  0.00000000E+00
  0.00000000E+00  0.00000000E+00  0.00000000E+00
  0.00000000E+00  0.00000000E+00  0.00000000E+00
  0.00000000E+00  0.00000000E+00  0.00000000E+00
  0.00000000E+00  0.00000000E+00  0.00000000E+00
  0.00000000E+00  0.00000000E+00  0.00000000E+00
  0.00000000E+00  0.00000000E+00  0.00000000E+00
  0.00000000E+00  0.00000000E+00  0.00000000E+00
  0.00000000E+00  0.00000000E+00  0.00000000E+00
  0.00000000E+00  0.00000000E+00  0.00000000E+00
  0.00000000E+00  0.00000000E+00  0.00000000E+00
  0.00000000E+00  0.00000000E+00  0.00000000E+00
  0.00000000E+00  0.00000000E+00  0.00000000E+00
  0.00000000E+00  0.00000000E+00  0.00000000E+00
  0.00000000E+00  0.00000000E+00  0.00000000E+00
  0.00000000E+00  0.00000000E+00  0.00000000E+00
  0.00000000E+00  0.00000000E+00  0.00000000E+00
  0.00000000E+00  0.00000000E+00  0.00000000E+00
  0.00000000E+00  0.00000000E+00  0.00000000E+00
  0.00000000E+00  0.00000000E+00  0.00000000E+00
  0.00000000E+00  0.00000000E+00  0.00000000E+00
  0.00000000E+00  0.00000000E+00  0.00000000E+00
  0.00000000E+00  0.00000000E+00  0.00000000E+00
  0.00000000E+00  0.00000000E+00  0.00000000E+00
  0.00000000E+00  0.00000000E+00  0.00000000E+00
  0.00000000E+00  0.00000000E+00  0.00000000E+00
  0.00000000E+00  0.00000000E+00  0.00000000E+00
  0.00000000E+00  0.00000000E+00  0.00000000E+00
  0.00000000E+00  0.00000000E+00  0.00000000E+00
  0.00000000E+00  0.00000000E+00  0.00000000E+00
  0.00000000E+00  0.00000000E+00  0.00000000E+00
  0.00000000E+00  0.00000000E+00  0.00000000E+00
  0.00000000E+00  0.00000000E+00  0.00000000E+00
  0.00000000E+00  0.00000000E+00  0.00000000E+00
  0.00000000E+00  0.00000000E+00  0.00000000E+00
  0.00000000E+00  0.00000000E+00  0.00000000E+00
  0.00000000E+00  0.00000000E+00  0.00000000E+00
  0.00000000E+00  0.00000000E+00  0.00000000E+00
  0.00000000E+00  0.00000000E+00  0.00000000E+00
  0.00000000E+00  0.00000000E+00  0.00000000E+00
  0.00000000E+00  0.00000000E+00  0.00000000E+00
  0.00000000E+00  0.00000000E+00  0.00000000E+00
  0.00000000E+00  0.00000000E+00  0.00000000E+00
  0.00000000E+00  0.00000000E+00  0.00000000E+00
  0.00000000E+00  0.00000000E+00  0.00000000E+00
  0.00000000E+00  0.00000000E+00  0.00000000E+00
  0.00000000E+00  0.00000000E+00  0.00000000E+00
  0.00000000E+00  0.00000000E+00  0.00000000E+00
  0.00000000E+00  0.00000000E+00  0.00000000E+00
  0.00000000E+00  0.00000000E+00  0.00000000E+00
  0.00000000E+00  0.00000000E+00  0.00000000E+00
  0.00000000E+00  0.00000000E+00  0.00000000E+00
  0.00000000E+00  0.00000000E+00  0.00000000E+00
  0.00000000E+00  0.00000000E+00  0.00000000E+00
  0.00000000E+00  0.00000000E+00  0.00000000E+00
  0.00000000E+00  0.00000000E+00  0.00000000E+00
  0.00000000E+00  0.00000000E+00  0.00000000E+00
  0.00000000E+00  0.00000000E+00  0.00000000E+00
  0.00000000E+00  0.00000000E+00  0.00000000E+00
  0.00000000E+00  0.00000000E+00  0.00000000E+00
  0.00000000E+00  0.00000000E+00  0.00000000E+00
  0.00000000E+00  0.00000000E+00  0.00000000E+00
  0.00000000E+00  0.00000000E+00  0.00000000E+00
  0.00000000E+00  0.00000000E+00  0.00000000E+00
  0.00000000E+00  0.00000000E+00  0.00000000E+00
  0.00000000E+00  0.00000000E+00  0.00000000E+00
  0.00000000E+00  0.00000000E+00  0.00000000E+00
  0.00000000E+00  0.00000000E+00  0.00000000E+00
  0.00000000E+00  0.00000000E+00  0.00000000E+00
  0.00000000E+00  0.00000000E+00  0.00000000E+00
  0.00000000E+00  0.00000000E+00  0.00000000E+00
  0.00000000E+00  0.00000000E+00  0.00000000E+00
  0.00000000E+00  0.00000000E+00  0.00000000E+00
  0.00000000E+00  0.00000000E+00  0.00000000E+00
  0.00000000E+00  0.00000000E+00  0.00000000E+00
  0.00000000E+00  0.00000000E+00  0.00000000E+00
  0.00000000E+00  0.00000000E+00  0.00000000E+00
  0.00000000E+00  0.00000000E+00  0.00000000E+00
  0.00000000E+00  0.00000000E+00  0.00000000E+00
  0.00000000E+00  0.00000000E+00  0.00000000E+00
  0.00000000E+00  0.00000000E+00  0.00000000E+00
  0.00000000E+00  0.00000000E+00  0.00000000E+00
  0.00000000E+00  0.00000000E+00  0.00000000E+00
  0.00000000E+00  0.00000000E+00  0.00000000E+00
  0.00000000E+00  0.00000000E+00  0.00000000E+00
  0.00000000E+00  0.00000000E+00  0.00000000E+00
  0.00000000E+00  0.00000000E+00  0.00000000E+00
  0.00000000E+00  0.00000000E+00  0.00000000E+00
  0.00000000E+00  0.00000000E+00  0.00000000E+00
  0.00000000E+00  0.00000000E+00  0.00000000E+00
  0.00000000E+00  0.00000000E+00  0.00000000E+00
  0.00000000E+00  0.00000000E+00  0.00000000E+00
  0.00000000E+00  0.00000000E+00  0.00000000E+00
  0.00000000E+00  0.00000000E+00  0.00000000E+00
  0.00000000E+00  0.00000000E+00  0.00000000E+00
  0.00000000E+00  0.00000000E+00  0.00000000E+00
  0.00000000E+00  0.00000000E+00  0.00000000E+00
  0.00000000E+00  0.00000000E+00  0.00000000E+00
  0.00000000E+00  0.00000000E+00  0.00000000E+00
  0.00000000E+00  0.00000000E+00  0.00000000E+00
  0.00000000E+00  0.00000000E+00  0.00000000E+00
  0.00000000E+00  0.00000000E+00  0.00000000E+00
  0.00000000E+00  0.00000000E+00  0.00000000E+00
  0.00000000E+00  0.00000000E+00  0.00000000E+00
  0.00000000E+00  0.00000000E+00  0.00000000E+00
  0.00000000E+00  0.00000000E+00  0.00000000E+00
  0.00000000E+00  0.00000000E+00  0.00000000E+00
  0.00000000E+00  0.00000000E+00  0.00000000E+00
  0.00000000E+00  0.00000000E+00  0.00000000E+00
  0.00000000E+00  0.00000000E+00  0.00000000E+00
  0.00000000E+00  0.00000000E+00  0.00000000E+00
  0.00000000E+00  0.00000000E+00  0.00000000E+00
  0.00000000E+00  0.00000000E+00  0.00000000E+00
  0.00000000E+00  0.00000000E+00  0.00000000E+00
  0.00000000E+00  0.00000000E+00  0.00000000E+00
  0.00000000E+00  0.00000000E+00  0.00000000E+00
  0.00000000E+00  0.00000000E+00  0.00000000E+00
  0.00000000E+00  0.00000000E+00  0.00000000E+00
  0.00000000E+00  0.00000000E+00  0.00000000E+00
  0.00000000E+00  0.00000000E+00  0.00000000E+00
  0.00000000E+00  0.00000000E+00  0.00000000E+00
  0.00000000E+00  0.00000000E+00  0.00000000E+00
  0.00000000E+00  0.00000000E+00  0.00000000E+00
  0.00000000E+00  0.00000000E+00  0.00000000E+00
  0.00000000E+00  0.00000000E+00  0.00000000E+00
  0.00000000E+00  0.00000000E+00  0.00000000E+00
  0.00000000E+00  0.00000000E+00  0.00000000E+00
  0.00000000E+00  0.00000000E+00  0.00000000E+00
  0.00000000E+00  0.00000000E+00  0.00000000E+00
  0.00000000E+00  0.00000000E+00  0.00000000E+00
  0.00000000E+00  0.00000000E+00  0.00000000E+00
  0.00000000E+00  0.00000000E+00  0.00000000E+00
  0.00000000E+00  0.00000000E+00  0.00000000E+00
  0.00000000E+00  0.00000000E+00  0.00000000E+00
  0.00000000E+00  0.00000000E+00  0.00000000E+00
  0.00000000E+00  0.00000000E+00  0.00000000E+00
  0.00000000E+00  0.00000000E+00  0.00000000E+00
  0.00000000E+00  0.00000000E+00  0.00000000E+00
  0.00000000E+00  0.00000000E+00  0.00000000E+00
  0.00000000E+00  0.00000000E+00  0.00000000E+00
  0.00000000E+00  0.00000000E+00  0.00000000E+00
  0.00000000E+00  0.00000000E+00  0.00000000E+00
  0.00000000E+00  0.00000000E+00  0.00000000E+00
  0.00000000E+00  0.00000000E+00  0.00000000E+00
  0.00000000E+00  0.00000000E+00  0.00000000E+00
  0.00000000E+00  0.00000000E+00  0.00000000E+00
  0.00000000E+00  0.00000000E+00  0.00000000E+00
  0.00000000E+00  0.00000000E+00  0.00000000E+00
  0.00000000E+00  0.00000000E+00  0.00000000E+00
  0.00000000E+00  0.00000000E+00  0.00000000E+00
  0.00000000E+00  0.00000000E+00  0.00000000E+00
  0.00000000E+00  0.00000000E+00  0.00000000E+00
  0.00000000E+00  0.00000000E+00  0.00000000E+00
  0.00000000E+00  0.00000000E+00  0.00000000E+00
  0.00000000E+00  0.00000000E+00  0.00000000E+00
  0.00000000E+00  0.00000000E+00  0.00000000E+00
  0.00000000E+00  0.00000000E+00  0.00000000E+00
