Zn96 H16 Pt4 O96                        
    1.000000000000000     
    12.9159908295000001    0.0000000000000000    0.0000000000000000
    -6.4575307008999996   11.1858444632000005    0.0000000000000000
     0.0000000000000000    0.0000000000000000   41.8715667725000031
   Zn   O    H    O 
    96    96    16     2
Selective dynamics
Direct
  0.0833422689999992  0.1666569710000019  0.4138641059999983   F   F   F
  0.0833422689999992  0.4166569710000019  0.4138641059999983   F   F   F
  0.0833422689999992  0.6666569710000019  0.4138641059999983   F   F   F
  0.0833422689999992  0.9166569710000019  0.4138641059999983   F   F   F
  0.3333422540000015  0.1666569710000019  0.4138641059999983   F   F   F
  0.3333422540000015  0.4166569710000019  0.4138641059999983   F   F   F
  0.3333422540000015  0.6666569710000019  0.4138641059999983   F   F   F
  0.3333422540000015  0.9166569710000019  0.4138641059999983   F   F   F
  0.5833422540000015  0.1666569710000019  0.4138641059999983   F   F   F
  0.5833422540000015  0.4166569710000019  0.4138641059999983   F   F   F
  0.5833422540000015  0.6666569710000019  0.4138641059999983   F   F   F
  0.5833422540000015  0.9166569710000019  0.4138641059999983   F   F   F
  0.8333422540000015  0.1666569710000019  0.4138641059999983   F   F   F
  0.8333422540000015  0.4166569710000019  0.4138641059999983   F   F   F
  0.8333422540000015  0.6666569710000019  0.4138641059999983   F   F   F
  0.8333422540000015  0.9166569710000019  0.4138641059999983   F   F   F
  0.1666568959999992  0.0833424400000027  0.3513641059999983   F   F   F
  0.1666568959999992  0.3333424329999986  0.3513641059999983   F   F   F
  0.1666568959999992  0.5833424329999986  0.3513641059999983   F   F   F
  0.1666568959999992  0.8333424329999986  0.3513641059999983   F   F   F
  0.4166569109999969  0.0833424400000027  0.3513641059999983   F   F   F
  0.4166569109999969  0.3333424329999986  0.3513641059999983   F   F   F
  0.4166569109999969  0.5833424329999986  0.3513641059999983   F   F   F
  0.4166569109999969  0.8333424329999986  0.3513641059999983   F   F   F
  0.6666569109999969  0.0833424400000027  0.3513641059999983   F   F   F
  0.6666569109999969  0.3333424329999986  0.3513641059999983   F   F   F
  0.6666569109999969  0.5833424329999986  0.3513641059999983   F   F   F
  0.6666569109999969  0.8333424329999986  0.3513641059999983   F   F   F
  0.9166569109999969  0.0833424400000027  0.3513641059999983   F   F   F
  0.9166569109999969  0.3333424329999986  0.3513641059999983   F   F   F
  0.9166569109999969  0.5833424329999986  0.3513641059999983   F   F   F
  0.9166569109999969  0.8333424329999986  0.3513641059999983   F   F   F
  0.0833421419999993  0.1666568819999981  0.5388641360000008   F   F   F
  0.0833421419999993  0.4166568819999981  0.5388641360000008   F   F   F
  0.0833421419999993  0.6666568520000027  0.5388641360000008   F   F   F
  0.0833421419999993  0.9166568520000027  0.5388641360000008   F   F   F
  0.3333421350000023  0.1666568819999981  0.5388641360000008   F   F   F
  0.3333421350000023  0.4166568819999981  0.5388641360000008   F   F   F
  0.3333421350000023  0.6666568520000027  0.5388641360000008   F   F   F
  0.3333421350000023  0.9166568520000027  0.5388641360000008   F   F   F
  0.5833421350000023  0.1666568819999981  0.5388641360000008   F   F   F
  0.5833421350000023  0.4166568819999981  0.5388641360000008   F   F   F
  0.5833421350000023  0.6666568520000027  0.5388641360000008   F   F   F
  0.5833421350000023  0.9166568520000027  0.5388641360000008   F   F   F
  0.8333421350000023  0.1666568819999981  0.5388641360000008   F   F   F
  0.8333421350000023  0.4166568819999981  0.5388641360000008   F   F   F
  0.8333421350000023  0.6666568520000027  0.5388641360000008   F   F   F
  0.8333421350000023  0.9166568520000027  0.5388641360000008   F   F   F
  0.1666567770000000  0.0833423509999989  0.4763641059999983   F   F   F
  0.1666567770000000  0.3333423440000018  0.4763641059999983   F   F   F
  0.1666567770000000  0.5833423730000007  0.4763641059999983   F   F   F
  0.1666567770000000  0.8333423730000007  0.4763641059999983   F   F   F
  0.4166567919999977  0.0833423509999989  0.4763641059999983   F   F   F
  0.4166567919999977  0.3333423440000018  0.4763641059999983   F   F   F
  0.4166567919999977  0.5833423730000007  0.4763641059999983   F   F   F
  0.4166567919999977  0.8333423730000007  0.4763641059999983   F   F   F
  0.6666567919999977  0.0833423509999989  0.4763641059999983   F   F   F
  0.6666567919999977  0.3333423440000018  0.4763641059999983   F   F   F
  0.6666567919999977  0.5833423730000007  0.4763641059999983   F   F   F
  0.6666567919999977  0.8333423730000007  0.4763641059999983   F   F   F
  0.9166567919999977  0.0833423509999989  0.4763641059999983   F   F   F
  0.9166567919999977  0.3333423440000018  0.4763641059999983   F   F   F
  0.9166567919999977  0.5833423730000007  0.4763641059999983   F   F   F
  0.9166567919999977  0.8333423730000007  0.4763641059999983   F   F   F
  0.0736961355422281  0.1766461741362164  0.6703616553520533   T   T   T
  0.0726781309214246  0.3951008330506838  0.6709173667354804   T   T   T
  0.0860973635708788  0.6655934018948386  0.6617885874001317   T   T   T
  0.0860465944167146  0.9198927511875254  0.6624470809561913   T   T   T
  0.3315431980744492  0.1659186821415801  0.6617672109308970   T   T   T
  0.3384976519345457  0.4184556179398840  0.6596256767179582   T   T   T
  0.3293494758273781  0.6656175370440423  0.6617658255453875   T   T   T
  0.3337778131230138  0.9174870688008738  0.6728657243016229   T   T   T
  0.5842882525334048  0.1657671955858646  0.6617796821234094   T   T   T
  0.5947565021958923  0.4390910006883715  0.6708951030854635   T   T   T
  0.5888961586681276  0.6576715456017581  0.6701244170362699   T   T   T
  0.5837447790530774  0.9199214291655409  0.6624711728716477   T   T   T
  0.8529482842525269  0.1764999840964663  0.6703193120433610   T   T   T
  0.8301328735382825  0.4181862905454850  0.6595248031964829   T   T   T
  0.8183819511930395  0.6573483397389879  0.6701377800050281   T   T   T
  0.8310633565405396  0.9121449163414894  0.6599219168765558   T   T   T
  0.1645389747647386  0.0854380796850407  0.6037463193642978   T   T   T
  0.1667889415340795  0.3332380095683263  0.6016298200544483   T   T   T
  0.1642883003090176  0.5785890712995254  0.6037103505256880   T   T   T
  0.1687132199125543  0.8345045537519766  0.6028890739361898   T   T   T
  0.4156942596639652  0.0813800572933303  0.6025848022093783   T   T   T
  0.4201729794135147  0.3342386464774947  0.6034161584205293   T   T   T
  0.4191237674689745  0.5855065700862383  0.6029683787159854   T   T   T
  0.4158066522181514  0.8345071914836737  0.6028637189035209   T   T   T
  0.6709051664925383  0.0854236467460296  0.6037434599087135   T   T   T
  0.6641255911734802  0.3341703078394573  0.6033807956354096   T   T   T
  0.6670736069975689  0.5842080420375240  0.5988314914319446   T   T   T
  0.6642386891763010  0.8303147743713595  0.6035434254795931   T   T   T
  0.9165744446021051  0.0830780371459809  0.6015604268946930   T   T   T
  0.9165829908293048  0.3332001671384219  0.6015978323601914   T   T   T
  0.9163587317165280  0.5854806360412965  0.6029785165172754   T   T   T
  0.9160445261003645  0.8302577983337684  0.6035618451600229   T   T   T
  0.0833223240000009  0.1666771619999992  0.3361358940000017   F   F   F
  0.0833223240000009  0.4166771769999968  0.3361358940000017   F   F   F
  0.0833223240000009  0.6666771769999968  0.3361358940000017   F   F   F
  0.0833223240000009  0.9166771769999968  0.3361358940000017   F   F   F
  0.3333223160000003  0.1666771619999992  0.3361358940000017   F   F   F
  0.3333223160000003  0.4166771769999968  0.3361358940000017   F   F   F
  0.3333223160000003  0.6666771769999968  0.3361358940000017   F   F   F
  0.3333223160000003  0.9166771769999968  0.3361358940000017   F   F   F
  0.5833223460000028  0.1666771619999992  0.3361358940000017   F   F   F
  0.5833223460000028  0.4166771769999968  0.3361358940000017   F   F   F
  0.5833223460000028  0.6666771769999968  0.3361358940000017   F   F   F
  0.5833223460000028  0.9166771769999968  0.3361358940000017   F   F   F
  0.8333223460000028  0.1666771619999992  0.3361358940000017   F   F   F
  0.8333223460000028  0.4166771769999968  0.3361358940000017   F   F   F
  0.8333223460000028  0.6666771769999968  0.3361358940000017   F   F   F
  0.8333223460000028  0.9166771769999968  0.3361358940000017   F   F   F
  0.1666769979999998  0.0833223759999981  0.3986358940000017   F   F   F
  0.1666769979999998  0.3333223759999981  0.3986358940000017   F   F   F
  0.1666769979999998  0.5833224060000006  0.3986358940000017   F   F   F
  0.1666769979999998  0.8333224060000006  0.3986358940000017   F   F   F
  0.4166769979999998  0.0833223759999981  0.3986358940000017   F   F   F
  0.4166769979999998  0.3333223759999981  0.3986358940000017   F   F   F
  0.4166769979999998  0.5833224060000006  0.3986358940000017   F   F   F
  0.4166769979999998  0.8333224060000006  0.3986358940000017   F   F   F
  0.6666769979999998  0.0833223759999981  0.3986358940000017   F   F   F
  0.6666769979999998  0.3333223759999981  0.3986358940000017   F   F   F
  0.6666769979999998  0.5833224060000006  0.3986358940000017   F   F   F
  0.6666769979999998  0.8333224060000006  0.3986358940000017   F   F   F
  0.9166769979999998  0.0833223759999981  0.3986358940000017   F   F   F
  0.9166769979999998  0.3333223759999981  0.3986358940000017   F   F   F
  0.9166769979999998  0.5833224060000006  0.3986358940000017   F   F   F
  0.9166769979999998  0.8333224060000006  0.3986358940000017   F   F   F
  0.0833221970000011  0.1666770730000025  0.4611358940000017   F   F   F
  0.0833221970000011  0.4166770579999977  0.4611358940000017   F   F   F
  0.0833221970000011  0.6666770579999977  0.4611358940000017   F   F   F
  0.0833221970000011  0.9166770579999977  0.4611358940000017   F   F   F
  0.3333221970000011  0.1666770730000025  0.4611358940000017   F   F   F
  0.3333221970000011  0.4166770579999977  0.4611358940000017   F   F   F
  0.3333221970000011  0.6666770579999977  0.4611358940000017   F   F   F
  0.3333221970000011  0.9166770579999977  0.4611358940000017   F   F   F
  0.5833221669999986  0.1666770730000025  0.4611358940000017   F   F   F
  0.5833221669999986  0.4166770579999977  0.4611358940000017   F   F   F
  0.5833221669999986  0.6666770579999977  0.4611358940000017   F   F   F
  0.5833221669999986  0.9166770579999977  0.4611358940000017   F   F   F
  0.8333221669999986  0.1666770730000025  0.4611358940000017   F   F   F
  0.8333221669999986  0.4166770579999977  0.4611358940000017   F   F   F
  0.8333221669999986  0.6666770579999977  0.4611358940000017   F   F   F
  0.8333221669999986  0.9166770579999977  0.4611358940000017   F   F   F
  0.1666768790000006  0.0833222870000014  0.5236359239999970   F   F   F
  0.1666768790000006  0.3333222870000014  0.5236359239999970   F   F   F
  0.1666768790000006  0.5833222870000014  0.5236359239999970   F   F   F
  0.1666768790000006  0.8333222870000014  0.5236359239999970   F   F   F
  0.4166768790000006  0.0833222870000014  0.5236359239999970   F   F   F
  0.4166768790000006  0.3333222870000014  0.5236359239999970   F   F   F
  0.4166768790000006  0.5833222870000014  0.5236359239999970   F   F   F
  0.4166768790000006  0.8333222870000014  0.5236359239999970   F   F   F
  0.6666768790000006  0.0833222870000014  0.5236359239999970   F   F   F
  0.6666768790000006  0.3333222870000014  0.5236359239999970   F   F   F
  0.6666768790000006  0.5833222870000014  0.5236359239999970   F   F   F
  0.6666768790000006  0.8333222870000014  0.5236359239999970   F   F   F
  0.9166768790000006  0.0833222870000014  0.5236359239999970   F   F   F
  0.9166768790000006  0.3333222870000014  0.5236359239999970   F   F   F
  0.9166768790000006  0.5833222870000014  0.5236359239999970   F   F   F
  0.9166768790000006  0.8333222870000014  0.5236359239999970   F   F   F
  0.0831792076691613  0.1667435144733389  0.5867614867443223   T   T   T
  0.0831019034104656  0.4160560264976496  0.5867536931354422   T   T   T
  0.0843794307428922  0.6658358829156938  0.5883463455347453   T   T   T
  0.0836926784810359  0.9181261388292299  0.5885087620471907   T   T   T
  0.3318805985846822  0.1664465279403800  0.5883897138056113   T   T   T
  0.3363686475623382  0.4177910772271503  0.5879263654123292   T   T   T
  0.3314255286665215  0.6658372265133892  0.5883336338614455   T   T   T
  0.3332861840989878  0.9166095197029591  0.5867273618682560   T   T   T
  0.5845253629843725  0.1663663223275904  0.5883691789369863   T   T   T
  0.5821375398375466  0.4142130639438548  0.5863428668666941   T   T   T
  0.5815402815371371  0.6687116747576312  0.5862216215014939   T   T   T
  0.5844321447098650  0.9181420498356090  0.5884897000025475   T   T   T
  0.8335734795091980  0.1666867950207020  0.5867611628043790   T   T   T
  0.8315457410107570  0.4177869120721098  0.5879260327098166   T   T   T
  0.8371347286258839  0.6686702048538820  0.5862327033058605   T   T   T
  0.8316153535622490  0.9131765133187884  0.5881658490507249   T   T   T
  0.1602242310185460  0.0907247458917979  0.6553856787146231   T   T   T
  0.1720344805199829  0.3356671585175164  0.6497233398667746   T   T   T
  0.1587025956089718  0.5675055969760976  0.6553368663137888   T   T   T
  0.1700651146463414  0.8348660714030132  0.6526836858396337   T   T   T
  0.4151788626386903  0.0804289405709966  0.6522993377744655   T   T   T
  0.4261727562434174  0.3358478291549361  0.6541835695215070   T   T   T
  0.4215475274333542  0.5884467911422746  0.6532854935560408   T   T   T
  0.4147717716314290  0.8348607550087053  0.6526452179145465   T   T   T
  0.6805511397048321  0.0907135867027904  0.6553683855694317   T   T   T
  0.6599019454118320  0.3355910243561055  0.6540623548815532   T   T   T
  0.6691028732210640  0.5885378850975940  0.6443275457200670   T   T   T
  0.6602383987943128  0.8258438809120179  0.6547316342765939   T   T   T
  0.9142465535866791  0.0783063524679406  0.6497884612979874   T   T   T
  0.9139506748449264  0.3355393906661064  0.6497021966971346   T   T   T
  0.9166479720192768  0.5882686056604669  0.6533508344849110   T   T   T
  0.9154042288970459  0.8256094542945718  0.6548156743884945   T   T   T
  0.0833225029999980  0.1666775050000027  0.3114693160000002   F   F   F
  0.0833225029999980  0.4166775050000027  0.3114693160000002   F   F   F
  0.0833225029999980  0.6666774750000002  0.3114693160000002   F   F   F
  0.0833225029999980  0.9166774750000002  0.3114693160000002   F   F   F
  0.3333224949999973  0.1666775050000027  0.3114693160000002   F   F   F
  0.3333224949999973  0.4166775050000027  0.3114693160000002   F   F   F
  0.3333224949999973  0.6666774750000002  0.3114693160000002   F   F   F
  0.3333224949999973  0.9166774750000002  0.3114693160000002   F   F   F
  0.5833225249999998  0.1666775050000027  0.3114693160000002   F   F   F
  0.5833225249999998  0.4166775050000027  0.3114693160000002   F   F   F
  0.5833225249999998  0.6666774750000002  0.3114693160000002   F   F   F
  0.5833225249999998  0.9166774750000002  0.3114693160000002   F   F   F
  0.8333225249999998  0.1666775050000027  0.3114693160000002   F   F   F
  0.8333225249999998  0.4166775050000027  0.3114693160000002   F   F   F
  0.8333225249999998  0.6666774750000002  0.3114693160000002   F   F   F
  0.8333225249999998  0.9166774750000002  0.3114693160000002   F   F   F
  0.5949329067890972  0.5612674619343991  0.7067139540319118   T   T   T
  0.7139953431749220  0.5592929444041843  0.7064523807029914   T   T   T
 
  0.00000000E+00  0.00000000E+00  0.00000000E+00
  0.00000000E+00  0.00000000E+00  0.00000000E+00
  0.00000000E+00  0.00000000E+00  0.00000000E+00
  0.00000000E+00  0.00000000E+00  0.00000000E+00
  0.00000000E+00  0.00000000E+00  0.00000000E+00
  0.00000000E+00  0.00000000E+00  0.00000000E+00
  0.00000000E+00  0.00000000E+00  0.00000000E+00
  0.00000000E+00  0.00000000E+00  0.00000000E+00
  0.00000000E+00  0.00000000E+00  0.00000000E+00
  0.00000000E+00  0.00000000E+00  0.00000000E+00
  0.00000000E+00  0.00000000E+00  0.00000000E+00
  0.00000000E+00  0.00000000E+00  0.00000000E+00
  0.00000000E+00  0.00000000E+00  0.00000000E+00
  0.00000000E+00  0.00000000E+00  0.00000000E+00
  0.00000000E+00  0.00000000E+00  0.00000000E+00
  0.00000000E+00  0.00000000E+00  0.00000000E+00
  0.00000000E+00  0.00000000E+00  0.00000000E+00
  0.00000000E+00  0.00000000E+00  0.00000000E+00
  0.00000000E+00  0.00000000E+00  0.00000000E+00
  0.00000000E+00  0.00000000E+00  0.00000000E+00
  0.00000000E+00  0.00000000E+00  0.00000000E+00
  0.00000000E+00  0.00000000E+00  0.00000000E+00
  0.00000000E+00  0.00000000E+00  0.00000000E+00
  0.00000000E+00  0.00000000E+00  0.00000000E+00
  0.00000000E+00  0.00000000E+00  0.00000000E+00
  0.00000000E+00  0.00000000E+00  0.00000000E+00
  0.00000000E+00  0.00000000E+00  0.00000000E+00
  0.00000000E+00  0.00000000E+00  0.00000000E+00
  0.00000000E+00  0.00000000E+00  0.00000000E+00
  0.00000000E+00  0.00000000E+00  0.00000000E+00
  0.00000000E+00  0.00000000E+00  0.00000000E+00
  0.00000000E+00  0.00000000E+00  0.00000000E+00
  0.00000000E+00  0.00000000E+00  0.00000000E+00
  0.00000000E+00  0.00000000E+00  0.00000000E+00
  0.00000000E+00  0.00000000E+00  0.00000000E+00
  0.00000000E+00  0.00000000E+00  0.00000000E+00
  0.00000000E+00  0.00000000E+00  0.00000000E+00
  0.00000000E+00  0.00000000E+00  0.00000000E+00
  0.00000000E+00  0.00000000E+00  0.00000000E+00
  0.00000000E+00  0.00000000E+00  0.00000000E+00
  0.00000000E+00  0.00000000E+00  0.00000000E+00
  0.00000000E+00  0.00000000E+00  0.00000000E+00
  0.00000000E+00  0.00000000E+00  0.00000000E+00
  0.00000000E+00  0.00000000E+00  0.00000000E+00
  0.00000000E+00  0.00000000E+00  0.00000000E+00
  0.00000000E+00  0.00000000E+00  0.00000000E+00
  0.00000000E+00  0.00000000E+00  0.00000000E+00
  0.00000000E+00  0.00000000E+00  0.00000000E+00
  0.00000000E+00  0.00000000E+00  0.00000000E+00
  0.00000000E+00  0.00000000E+00  0.00000000E+00
  0.00000000E+00  0.00000000E+00  0.00000000E+00
  0.00000000E+00  0.00000000E+00  0.00000000E+00
  0.00000000E+00  0.00000000E+00  0.00000000E+00
  0.00000000E+00  0.00000000E+00  0.00000000E+00
  0.00000000E+00  0.00000000E+00  0.00000000E+00
  0.00000000E+00  0.00000000E+00  0.00000000E+00
  0.00000000E+00  0.00000000E+00  0.00000000E+00
  0.00000000E+00  0.00000000E+00  0.00000000E+00
  0.00000000E+00  0.00000000E+00  0.00000000E+00
  0.00000000E+00  0.00000000E+00  0.00000000E+00
  0.00000000E+00  0.00000000E+00  0.00000000E+00
  0.00000000E+00  0.00000000E+00  0.00000000E+00
  0.00000000E+00  0.00000000E+00  0.00000000E+00
  0.00000000E+00  0.00000000E+00  0.00000000E+00
  0.00000000E+00  0.00000000E+00  0.00000000E+00
  0.00000000E+00  0.00000000E+00  0.00000000E+00
  0.00000000E+00  0.00000000E+00  0.00000000E+00
  0.00000000E+00  0.00000000E+00  0.00000000E+00
  0.00000000E+00  0.00000000E+00  0.00000000E+00
  0.00000000E+00  0.00000000E+00  0.00000000E+00
  0.00000000E+00  0.00000000E+00  0.00000000E+00
  0.00000000E+00  0.00000000E+00  0.00000000E+00
  0.00000000E+00  0.00000000E+00  0.00000000E+00
  0.00000000E+00  0.00000000E+00  0.00000000E+00
  0.00000000E+00  0.00000000E+00  0.00000000E+00
  0.00000000E+00  0.00000000E+00  0.00000000E+00
  0.00000000E+00  0.00000000E+00  0.00000000E+00
  0.00000000E+00  0.00000000E+00  0.00000000E+00
  0.00000000E+00  0.00000000E+00  0.00000000E+00
  0.00000000E+00  0.00000000E+00  0.00000000E+00
  0.00000000E+00  0.00000000E+00  0.00000000E+00
  0.00000000E+00  0.00000000E+00  0.00000000E+00
  0.00000000E+00  0.00000000E+00  0.00000000E+00
  0.00000000E+00  0.00000000E+00  0.00000000E+00
  0.00000000E+00  0.00000000E+00  0.00000000E+00
  0.00000000E+00  0.00000000E+00  0.00000000E+00
  0.00000000E+00  0.00000000E+00  0.00000000E+00
  0.00000000E+00  0.00000000E+00  0.00000000E+00
  0.00000000E+00  0.00000000E+00  0.00000000E+00
  0.00000000E+00  0.00000000E+00  0.00000000E+00
  0.00000000E+00  0.00000000E+00  0.00000000E+00
  0.00000000E+00  0.00000000E+00  0.00000000E+00
  0.00000000E+00  0.00000000E+00  0.00000000E+00
  0.00000000E+00  0.00000000E+00  0.00000000E+00
  0.00000000E+00  0.00000000E+00  0.00000000E+00
  0.00000000E+00  0.00000000E+00  0.00000000E+00
  0.00000000E+00  0.00000000E+00  0.00000000E+00
  0.00000000E+00  0.00000000E+00  0.00000000E+00
  0.00000000E+00  0.00000000E+00  0.00000000E+00
  0.00000000E+00  0.00000000E+00  0.00000000E+00
  0.00000000E+00  0.00000000E+00  0.00000000E+00
  0.00000000E+00  0.00000000E+00  0.00000000E+00
  0.00000000E+00  0.00000000E+00  0.00000000E+00
  0.00000000E+00  0.00000000E+00  0.00000000E+00
  0.00000000E+00  0.00000000E+00  0.00000000E+00
  0.00000000E+00  0.00000000E+00  0.00000000E+00
  0.00000000E+00  0.00000000E+00  0.00000000E+00
  0.00000000E+00  0.00000000E+00  0.00000000E+00
  0.00000000E+00  0.00000000E+00  0.00000000E+00
  0.00000000E+00  0.00000000E+00  0.00000000E+00
  0.00000000E+00  0.00000000E+00  0.00000000E+00
  0.00000000E+00  0.00000000E+00  0.00000000E+00
  0.00000000E+00  0.00000000E+00  0.00000000E+00
  0.00000000E+00  0.00000000E+00  0.00000000E+00
  0.00000000E+00  0.00000000E+00  0.00000000E+00
  0.00000000E+00  0.00000000E+00  0.00000000E+00
  0.00000000E+00  0.00000000E+00  0.00000000E+00
  0.00000000E+00  0.00000000E+00  0.00000000E+00
  0.00000000E+00  0.00000000E+00  0.00000000E+00
  0.00000000E+00  0.00000000E+00  0.00000000E+00
  0.00000000E+00  0.00000000E+00  0.00000000E+00
  0.00000000E+00  0.00000000E+00  0.00000000E+00
  0.00000000E+00  0.00000000E+00  0.00000000E+00
  0.00000000E+00  0.00000000E+00  0.00000000E+00
  0.00000000E+00  0.00000000E+00  0.00000000E+00
  0.00000000E+00  0.00000000E+00  0.00000000E+00
  0.00000000E+00  0.00000000E+00  0.00000000E+00
  0.00000000E+00  0.00000000E+00  0.00000000E+00
  0.00000000E+00  0.00000000E+00  0.00000000E+00
  0.00000000E+00  0.00000000E+00  0.00000000E+00
  0.00000000E+00  0.00000000E+00  0.00000000E+00
  0.00000000E+00  0.00000000E+00  0.00000000E+00
  0.00000000E+00  0.00000000E+00  0.00000000E+00
  0.00000000E+00  0.00000000E+00  0.00000000E+00
  0.00000000E+00  0.00000000E+00  0.00000000E+00
  0.00000000E+00  0.00000000E+00  0.00000000E+00
  0.00000000E+00  0.00000000E+00  0.00000000E+00
  0.00000000E+00  0.00000000E+00  0.00000000E+00
  0.00000000E+00  0.00000000E+00  0.00000000E+00
  0.00000000E+00  0.00000000E+00  0.00000000E+00
  0.00000000E+00  0.00000000E+00  0.00000000E+00
  0.00000000E+00  0.00000000E+00  0.00000000E+00
  0.00000000E+00  0.00000000E+00  0.00000000E+00
  0.00000000E+00  0.00000000E+00  0.00000000E+00
  0.00000000E+00  0.00000000E+00  0.00000000E+00
  0.00000000E+00  0.00000000E+00  0.00000000E+00
  0.00000000E+00  0.00000000E+00  0.00000000E+00
  0.00000000E+00  0.00000000E+00  0.00000000E+00
  0.00000000E+00  0.00000000E+00  0.00000000E+00
  0.00000000E+00  0.00000000E+00  0.00000000E+00
  0.00000000E+00  0.00000000E+00  0.00000000E+00
  0.00000000E+00  0.00000000E+00  0.00000000E+00
  0.00000000E+00  0.00000000E+00  0.00000000E+00
  0.00000000E+00  0.00000000E+00  0.00000000E+00
  0.00000000E+00  0.00000000E+00  0.00000000E+00
  0.00000000E+00  0.00000000E+00  0.00000000E+00
  0.00000000E+00  0.00000000E+00  0.00000000E+00
  0.00000000E+00  0.00000000E+00  0.00000000E+00
  0.00000000E+00  0.00000000E+00  0.00000000E+00
  0.00000000E+00  0.00000000E+00  0.00000000E+00
  0.00000000E+00  0.00000000E+00  0.00000000E+00
  0.00000000E+00  0.00000000E+00  0.00000000E+00
  0.00000000E+00  0.00000000E+00  0.00000000E+00
  0.00000000E+00  0.00000000E+00  0.00000000E+00
  0.00000000E+00  0.00000000E+00  0.00000000E+00
  0.00000000E+00  0.00000000E+00  0.00000000E+00
  0.00000000E+00  0.00000000E+00  0.00000000E+00
  0.00000000E+00  0.00000000E+00  0.00000000E+00
  0.00000000E+00  0.00000000E+00  0.00000000E+00
  0.00000000E+00  0.00000000E+00  0.00000000E+00
  0.00000000E+00  0.00000000E+00  0.00000000E+00
  0.00000000E+00  0.00000000E+00  0.00000000E+00
  0.00000000E+00  0.00000000E+00  0.00000000E+00
  0.00000000E+00  0.00000000E+00  0.00000000E+00
  0.00000000E+00  0.00000000E+00  0.00000000E+00
  0.00000000E+00  0.00000000E+00  0.00000000E+00
  0.00000000E+00  0.00000000E+00  0.00000000E+00
  0.00000000E+00  0.00000000E+00  0.00000000E+00
  0.00000000E+00  0.00000000E+00  0.00000000E+00
  0.00000000E+00  0.00000000E+00  0.00000000E+00
  0.00000000E+00  0.00000000E+00  0.00000000E+00
  0.00000000E+00  0.00000000E+00  0.00000000E+00
  0.00000000E+00  0.00000000E+00  0.00000000E+00
  0.00000000E+00  0.00000000E+00  0.00000000E+00
  0.00000000E+00  0.00000000E+00  0.00000000E+00
  0.00000000E+00  0.00000000E+00  0.00000000E+00
  0.00000000E+00  0.00000000E+00  0.00000000E+00
  0.00000000E+00  0.00000000E+00  0.00000000E+00
  0.00000000E+00  0.00000000E+00  0.00000000E+00
  0.00000000E+00  0.00000000E+00  0.00000000E+00
  0.00000000E+00  0.00000000E+00  0.00000000E+00
  0.00000000E+00  0.00000000E+00  0.00000000E+00
  0.00000000E+00  0.00000000E+00  0.00000000E+00
  0.00000000E+00  0.00000000E+00  0.00000000E+00
  0.00000000E+00  0.00000000E+00  0.00000000E+00
  0.00000000E+00  0.00000000E+00  0.00000000E+00
  0.00000000E+00  0.00000000E+00  0.00000000E+00
  0.00000000E+00  0.00000000E+00  0.00000000E+00
  0.00000000E+00  0.00000000E+00  0.00000000E+00
  0.00000000E+00  0.00000000E+00  0.00000000E+00
  0.00000000E+00  0.00000000E+00  0.00000000E+00
  0.00000000E+00  0.00000000E+00  0.00000000E+00
  0.00000000E+00  0.00000000E+00  0.00000000E+00
  0.00000000E+00  0.00000000E+00  0.00000000E+00
  0.00000000E+00  0.00000000E+00  0.00000000E+00
  0.00000000E+00  0.00000000E+00  0.00000000E+00
  0.00000000E+00  0.00000000E+00  0.00000000E+00
  0.00000000E+00  0.00000000E+00  0.00000000E+00
  0.00000000E+00  0.00000000E+00  0.00000000E+00
  0.00000000E+00  0.00000000E+00  0.00000000E+00
