Platinum (Pt) Crystal                   
    1.000000000000000     
    15.0000000000000000    0.0000000000000000    0.0000000000000000
     0.0000000000000000   16.0000000000000000    0.0000000000000000
     0.0000000000000000    0.0000000000000000   17.0000000000000000
   Pt
     4
Direct
  0.6313125246305999  0.6240547083268102  0.6169260052840710
  0.5128725720885772  0.5083444813576022  0.6195088653525241
  0.5130901372660368  0.6269387523574415  0.5079690267630623
  0.6313997600147909  0.5112948599581481  0.5103093306003353
 
  0.00000000E+00  0.00000000E+00  0.00000000E+00
  0.00000000E+00  0.00000000E+00  0.00000000E+00
  0.00000000E+00  0.00000000E+00  0.00000000E+00
  0.00000000E+00  0.00000000E+00  0.00000000E+00
