Platinum (Pt) Crystal
1.0
15.0000000000  0.0000000000  0.0000000000
0.0000000000  16.0000000000  0.0000000000
0.0000000000  0.0000000000  17.0000000000
Pt
4
Direct
0.629903749  0.621784762  0.614620954
0.514433748  0.513531639  0.614620954
0.514433748  0.621784762  0.512735660
0.629903749  0.513531639  0.512735660

