Zn96 H16 O96
1.0
  12.9159908295000001    0.0000000000000000    0.0000000000000000
  -6.4575307008999996   11.1858444632000005    0.0000000000000000
   0.0000000000000000    0.0000000000000000   41.8715667725000031
Zn O H O
96 96 16 1
Selective Dynamics
direct
0.0833422690000000 0.1666569710000000 0.4138641060000000 F F F
0.0833422690000000 0.4166569710000000 0.4138641060000000 F F F
0.0833422690000000 0.6666569710000000 0.4138641060000000 F F F
0.0833422690000000 0.9166569710000000 0.4138641060000000 F F F
0.3333422540000000 0.1666569710000000 0.4138641060000000 F F F
0.3333422540000000 0.4166569710000000 0.4138641060000000 F F F
0.3333422540000000 0.6666569710000000 0.4138641060000000 F F F
0.3333422540000000 0.9166569710000000 0.4138641060000000 F F F
0.5833422539999999 0.1666569710000000 0.4138641060000000 F F F
0.5833422539999999 0.4166569710000000 0.4138641060000000 F F F
0.5833422539999999 0.6666569710000000 0.4138641060000000 F F F
0.5833422539999999 0.9166569710000000 0.4138641060000000 F F F
0.8333422539999999 0.1666569710000000 0.4138641060000000 F F F
0.8333422539999999 0.4166569710000000 0.4138641060000000 F F F
0.8333422539999999 0.6666569710000000 0.4138641060000000 F F F
0.8333422539999999 0.9166569710000000 0.4138641060000000 F F F
0.1666568960000000 0.0833424400000000 0.3513641060000000 F F F
0.1666568960000000 0.3333424330000000 0.3513641060000000 F F F
0.1666568960000000 0.5833424330000000 0.3513641060000000 F F F
0.1666568960000000 0.8333424330000000 0.3513641060000000 F F F
0.4166569110000000 0.0833424400000000 0.3513641060000000 F F F
0.4166569110000000 0.3333424330000000 0.3513641060000000 F F F
0.4166569110000000 0.5833424330000000 0.3513641060000000 F F F
0.4166569110000000 0.8333424330000000 0.3513641060000000 F F F
0.6666569110000000 0.0833424400000000 0.3513641060000000 F F F
0.6666569110000000 0.3333424330000000 0.3513641060000000 F F F
0.6666569110000000 0.5833424330000000 0.3513641060000000 F F F
0.6666569110000000 0.8333424330000000 0.3513641060000000 F F F
0.9166569110000000 0.0833424400000000 0.3513641060000000 F F F
0.9166569110000000 0.3333424330000000 0.3513641060000000 F F F
0.9166569110000000 0.5833424330000000 0.3513641060000000 F F F
0.9166569110000000 0.8333424330000000 0.3513641060000000 F F F
0.0833421420000000 0.1666568820000000 0.5388641360000000 F F F
0.0833421420000000 0.4166568820000000 0.5388641360000000 F F F
0.0833421420000000 0.6666568520000000 0.5388641360000000 F F F
0.0833421420000000 0.9166568520000000 0.5388641360000000 F F F
0.3333421350000000 0.1666568820000000 0.5388641360000000 F F F
0.3333421350000000 0.4166568820000000 0.5388641360000000 F F F
0.3333421350000000 0.6666568520000000 0.5388641360000000 F F F
0.3333421350000000 0.9166568520000000 0.5388641360000000 F F F
0.5833421350000000 0.1666568820000000 0.5388641360000000 F F F
0.5833421350000000 0.4166568820000000 0.5388641360000000 F F F
0.5833421350000000 0.6666568520000000 0.5388641360000000 F F F
0.5833421350000000 0.9166568520000000 0.5388641360000000 F F F
0.8333421350000000 0.1666568820000000 0.5388641360000000 F F F
0.8333421350000000 0.4166568820000000 0.5388641360000000 F F F
0.8333421350000000 0.6666568520000000 0.5388641360000000 F F F
0.8333421350000000 0.9166568520000000 0.5388641360000000 F F F
0.1666567770000000 0.0833423510000000 0.4763641060000000 F F F
0.1666567770000000 0.3333423440000000 0.4763641060000000 F F F
0.1666567770000000 0.5833423730000000 0.4763641060000000 F F F
0.1666567770000000 0.8333423730000000 0.4763641060000000 F F F
0.4166567920000000 0.0833423510000000 0.4763641060000000 F F F
0.4166567920000000 0.3333423440000000 0.4763641060000000 F F F
0.4166567920000000 0.5833423730000000 0.4763641060000000 F F F
0.4166567920000000 0.8333423730000000 0.4763641060000000 F F F
0.6666567920000001 0.0833423510000000 0.4763641060000000 F F F
0.6666567920000001 0.3333423440000000 0.4763641060000000 F F F
0.6666567920000001 0.5833423730000000 0.4763641060000000 F F F
0.6666567920000001 0.8333423730000000 0.4763641060000000 F F F
0.9166567920000001 0.0833423510000000 0.4763641060000000 F F F
0.9166567920000001 0.3333423440000000 0.4763641060000000 F F F
0.9166567920000001 0.5833423730000000 0.4763641060000000 F F F
0.9166567920000001 0.8333423730000000 0.4763641060000000 F F F
0.0833478270000000 0.1666507270000000 0.6675029990000000 T T T
0.0833478270000000 0.4166507120000000 0.6675029990000000 T T T
0.0833478270000000 0.6666507120000000 0.6675029990000000 T T T
0.0833478270000000 0.9166507120000000 0.6675029990000000 T T T
0.3333478270000000 0.1666507270000000 0.6675029990000000 T T T
0.3333478270000000 0.4166507120000000 0.6675029990000000 T T T
0.3333478270000000 0.6666507120000000 0.6675029990000000 T T T
0.3333478270000000 0.9166507120000000 0.6675029990000000 T T T
0.5833477969999999 0.1666507270000000 0.6675029990000000 T T T
0.5833477969999999 0.4166507120000000 0.6675029990000000 T T T
0.5833477969999999 0.6666507120000000 0.6675029990000000 T T T
0.5833477969999999 0.9166507120000000 0.6675029990000000 T T T
0.8333477969999999 0.1666507270000000 0.6675029990000000 T T T
0.8333477969999999 0.4166507120000000 0.6675029990000000 T T T
0.8333477969999999 0.6666507120000000 0.6675029990000000 T T T
0.8333477969999999 0.9166507120000000 0.6675029990000000 T T T
0.1666707990000000 0.0833279560000000 0.6035680770000000 T T T
0.1666707990000000 0.3333279490000000 0.6035680770000000 T T T
0.1666707990000000 0.5833279490000000 0.6035680770000000 T T T
0.1666707990000000 0.8333279490000000 0.6035680770000000 T T T
0.4166707990000000 0.0833279560000000 0.6035680770000000 T T T
0.4166707990000000 0.3333279490000000 0.6035680770000000 T T T
0.4166707990000000 0.5833279490000000 0.6035680770000000 T T T
0.4166707990000000 0.8333279490000000 0.6035680770000000 T T T
0.6666707990000000 0.0833279560000000 0.6035680770000000 T T T
0.6666707990000000 0.3333279490000000 0.6035680770000000 T T T
0.6666707990000000 0.5833279490000000 0.6035680770000000 T T T
0.6666707990000000 0.8333279490000000 0.6035680770000000 T T T
0.9166707990000000 0.0833279560000000 0.6035680770000000 T T T
0.9166707990000000 0.3333279490000000 0.6035680770000000 T T T
0.9166707990000000 0.5833279490000000 0.6035680770000000 T T T
0.9166707990000000 0.8333279490000000 0.6035680770000000 T T T
0.0833223240000000 0.1666771620000000 0.3361358940000000 F F F
0.0833223240000000 0.4166771770000000 0.3361358940000000 F F F
0.0833223240000000 0.6666771770000000 0.3361358940000000 F F F
0.0833223240000000 0.9166771770000000 0.3361358940000000 F F F
0.3333223160000000 0.1666771620000000 0.3361358940000000 F F F
0.3333223160000000 0.4166771770000000 0.3361358940000000 F F F
0.3333223160000000 0.6666771770000000 0.3361358940000000 F F F
0.3333223160000000 0.9166771770000000 0.3361358940000000 F F F
0.5833223460000000 0.1666771620000000 0.3361358940000000 F F F
0.5833223460000000 0.4166771770000000 0.3361358940000000 F F F
0.5833223460000000 0.6666771770000000 0.3361358940000000 F F F
0.5833223460000000 0.9166771770000000 0.3361358940000000 F F F
0.8333223460000000 0.1666771620000000 0.3361358940000000 F F F
0.8333223460000000 0.4166771770000000 0.3361358940000000 F F F
0.8333223460000000 0.6666771770000000 0.3361358940000000 F F F
0.8333223460000000 0.9166771770000000 0.3361358940000000 F F F
0.1666769980000000 0.0833223760000000 0.3986358940000000 F F F
0.1666769980000000 0.3333223760000000 0.3986358940000000 F F F
0.1666769980000000 0.5833224060000000 0.3986358940000000 F F F
0.1666769980000000 0.8333224060000000 0.3986358940000000 F F F
0.4166769980000000 0.0833223760000000 0.3986358940000000 F F F
0.4166769980000000 0.3333223760000000 0.3986358940000000 F F F
0.4166769980000000 0.5833224060000000 0.3986358940000000 F F F
0.4166769980000000 0.8333224060000000 0.3986358940000000 F F F
0.6666769980000000 0.0833223760000000 0.3986358940000000 F F F
0.6666769980000000 0.3333223760000000 0.3986358940000000 F F F
0.6666769980000000 0.5833224060000000 0.3986358940000000 F F F
0.6666769980000000 0.8333224060000000 0.3986358940000000 F F F
0.9166769980000000 0.0833223760000000 0.3986358940000000 F F F
0.9166769980000000 0.3333223760000000 0.3986358940000000 F F F
0.9166769980000000 0.5833224060000000 0.3986358940000000 F F F
0.9166769980000000 0.8333224060000000 0.3986358940000000 F F F
0.0833221970000000 0.1666770730000000 0.4611358940000000 F F F
0.0833221970000000 0.4166770580000000 0.4611358940000000 F F F
0.0833221970000000 0.6666770580000000 0.4611358940000000 F F F
0.0833221970000000 0.9166770580000000 0.4611358940000000 F F F
0.3333221970000000 0.1666770730000000 0.4611358940000000 F F F
0.3333221970000000 0.4166770580000000 0.4611358940000000 F F F
0.3333221970000000 0.6666770580000000 0.4611358940000000 F F F
0.3333221970000000 0.9166770580000000 0.4611358940000000 F F F
0.5833221669999999 0.1666770730000000 0.4611358940000000 F F F
0.5833221669999999 0.4166770580000000 0.4611358940000000 F F F
0.5833221669999999 0.6666770580000000 0.4611358940000000 F F F
0.5833221669999999 0.9166770580000000 0.4611358940000000 F F F
0.8333221669999999 0.1666770730000000 0.4611358940000000 F F F
0.8333221669999999 0.4166770580000000 0.4611358940000000 F F F
0.8333221669999999 0.6666770580000000 0.4611358940000000 F F F
0.8333221669999999 0.9166770580000000 0.4611358940000000 F F F
0.1666768790000000 0.0833222870000000 0.5236359240000000 F F F
0.1666768790000000 0.3333222870000000 0.5236359240000000 F F F
0.1666768790000000 0.5833222870000000 0.5236359240000000 F F F
0.1666768790000000 0.8333222870000000 0.5236359240000000 F F F
0.4166768790000000 0.0833222870000000 0.5236359240000000 F F F
0.4166768790000000 0.3333222870000000 0.5236359240000000 F F F
0.4166768790000000 0.5833222870000000 0.5236359240000000 F F F
0.4166768790000000 0.8333222870000000 0.5236359240000000 F F F
0.6666768789999999 0.0833222870000000 0.5236359240000000 F F F
0.6666768789999999 0.3333222870000000 0.5236359240000000 F F F
0.6666768789999999 0.5833222870000000 0.5236359240000000 F F F
0.6666768789999999 0.8333222870000000 0.5236359240000000 F F F
0.9166768789999999 0.0833222870000000 0.5236359240000000 F F F
0.9166768789999999 0.3333222870000000 0.5236359240000000 F F F
0.9166768789999999 0.5833222870000000 0.5236359240000000 F F F
0.9166768789999999 0.8333222870000000 0.5236359240000000 F F F
0.0833352800000000 0.1666633190000000 0.5874731540000000 T T T
0.0833352800000000 0.4166633190000000 0.5874731540000000 T T T
0.0833352800000000 0.6666632890000000 0.5874731540000000 T T T
0.0833352800000000 0.9166632890000000 0.5874731540000000 T T T
0.3333352800000000 0.1666633190000000 0.5874731540000000 T T T
0.3333352800000000 0.4166633190000000 0.5874731540000000 T T T
0.3333352800000000 0.6666632890000000 0.5874731540000000 T T T
0.3333352800000000 0.9166632890000000 0.5874731540000000 T T T
0.5833352800000000 0.1666633190000000 0.5874731540000000 T T T
0.5833352800000000 0.4166633190000000 0.5874731540000000 T T T
0.5833352800000000 0.6666632890000000 0.5874731540000000 T T T
0.5833352800000000 0.9166632890000000 0.5874731540000000 T T T
0.8333352800000000 0.1666633190000000 0.5874731540000000 T T T
0.8333352800000000 0.4166633190000000 0.5874731540000000 T T T
0.8333352800000000 0.6666632890000000 0.5874731540000000 T T T
0.8333352800000000 0.9166632890000000 0.5874731540000000 T T T
0.1666825860000000 0.0833160060000000 0.6530506010000000 T T T
0.1666825860000000 0.3333159980000000 0.6530506010000000 T T T
0.1666825860000000 0.5833160280000000 0.6530506010000000 T T T
0.1666825860000000 0.8333160280000000 0.6530506010000000 T T T
0.4166826010000000 0.0833160060000000 0.6530506010000000 T T T
0.4166826010000000 0.3333159980000000 0.6530506010000000 T T T
0.4166826010000000 0.5833160280000000 0.6530506010000000 T T T
0.4166826010000000 0.8333160280000000 0.6530506010000000 T T T
0.6666826010000000 0.0833160060000000 0.6530506010000000 T T T
0.6666826010000000 0.3333159980000000 0.6530506010000000 T T T
0.6666826010000000 0.5833160280000000 0.6530506010000000 T T T
0.6666826010000000 0.8333160280000000 0.6530506010000000 T T T
0.9166826010000000 0.0833160060000000 0.6530506010000000 T T T
0.9166826010000000 0.3333159980000000 0.6530506010000000 T T T
0.9166826010000000 0.5833160280000000 0.6530506010000000 T T T
0.9166826010000000 0.8333160280000000 0.6530506010000000 T T T
0.0833225030000000 0.1666775050000000 0.3114693160000000 F F F
0.0833225030000000 0.4166775050000000 0.3114693160000000 F F F
0.0833225030000000 0.6666774750000000 0.3114693160000000 F F F
0.0833225030000000 0.9166774750000000 0.3114693160000000 F F F
0.3333224950000000 0.1666775050000000 0.3114693160000000 F F F
0.3333224950000000 0.4166775050000000 0.3114693160000000 F F F
0.3333224950000000 0.6666774750000000 0.3114693160000000 F F F
0.3333224950000000 0.9166774750000000 0.3114693160000000 F F F
0.5833225250000000 0.1666775050000000 0.3114693160000000 F F F
0.5833225250000000 0.4166775050000000 0.3114693160000000 F F F
0.5833225250000000 0.6666774750000000 0.3114693160000000 F F F
0.5833225250000000 0.9166774750000000 0.3114693160000000 F F F
0.8333225250000000 0.1666775050000000 0.3114693160000000 F F F
0.8333225250000000 0.4166775050000000 0.3114693160000000 F F F
0.8333225250000000 0.6666774750000000 0.3114693160000000 F F F
0.8333225250000000 0.9166774750000000 0.3114693160000000 F F F
0.5000000000000000 0.5000000000000000 0.7000000000000000 T T T

