Zn96 H16 O96                            
    1.000000000000000     
    12.9159907272337371    0.0000000000000000    0.0000000000000008
    -6.4575301003323453   11.1858448318051593    0.0000000000000008
     0.0000000000000000    0.0000000000000000   41.8715658066988325
   Zn   O    H H
    96    96    16 1
Selective dynamics
Direct
  0.0833363606364799  0.1666629307229641  0.4126959268448473   T   T   T
  0.0833363606364799  0.4166629307229641  0.4126959268448473   T   T   T
  0.0833363606364799  0.6666629307229641  0.4126959268448473   T   T   T
  0.0833363606364799  0.9166629307229641  0.4126959268448473   T   T   T
  0.3333363606364799  0.1666629307229641  0.4126959268448473   T   T   T
  0.3333363606364799  0.4166629307229641  0.4126959268448473   T   T   T
  0.3333363606364799  0.6666629307229641  0.4126959268448473   T   T   T
  0.3333363606364799  0.9166629307229641  0.4126959268448473   T   T   T
  0.5833363606364799  0.1666629307229641  0.4126959268448473   T   T   T
  0.5833363606364799  0.4166629307229641  0.4126959268448473   T   T   T
  0.5833363606364799  0.6666629307229641  0.4126959268448473   T   T   T
  0.5833363606364799  0.9166629307229641  0.4126959268448473   T   T   T
  0.8333363606364799  0.1666629307229641  0.4126959268448473   T   T   T
  0.8333363606364799  0.4166629307229641  0.4126959268448473   T   T   T
  0.8333363606364799  0.6666629307229641  0.4126959268448473   T   T   T
  0.8333363606364799  0.9166629307229641  0.4126959268448473   T   T   T
  0.1666601771136484  0.0833392421599370  0.3478269152788229   T   T   T
  0.1666601771136484  0.3333392421599370  0.3478269152788229   T   T   T
  0.1666601771136484  0.5833392421599370  0.3478269152788229   T   T   T
  0.1666601771136484  0.8333392421599370  0.3478269152788229   T   T   T
  0.4166601771136484  0.0833392421599370  0.3478269152788229   T   T   T
  0.4166601771136484  0.3333392421599370  0.3478269152788229   T   T   T
  0.4166601771136484  0.5833392421599370  0.3478269152788229   T   T   T
  0.4166601771136484  0.8333392421599370  0.3478269152788229   T   T   T
  0.6666601771136484  0.0833392421599370  0.3478269152788229   T   T   T
  0.6666601771136484  0.3333392421599370  0.3478269152788229   T   T   T
  0.6666601771136484  0.5833392421599370  0.3478269152788229   T   T   T
  0.6666601771136484  0.8333392421599370  0.3478269152788229   T   T   T
  0.9166601771136484  0.0833392421599370  0.3478269152788229   T   T   T
  0.9166601771136484  0.3333392421599370  0.3478269152788229   T   T   T
  0.9166601771136484  0.5833392421599370  0.3478269152788229   T   T   T
  0.9166601771136484  0.8333392421599370  0.3478269152788229   T   T   T
  0.0833421456183316  0.1666568756581057  0.5388641089449635   F   F   F
  0.0833421456183316  0.4166568756581057  0.5388641089449635   F   F   F
  0.0833421456183316  0.6666568756581057  0.5388641089449635   F   F   F
  0.0833421456183316  0.9166568756581057  0.5388641089449635   F   F   F
  0.3333421456183316  0.1666568756581057  0.5388641089449635   F   F   F
  0.3333421456183316  0.4166568756581057  0.5388641089449635   F   F   F
  0.3333421456183316  0.6666568756581057  0.5388641089449635   F   F   F
  0.3333421456183316  0.9166568756581057  0.5388641089449635   F   F   F
  0.5833421456183316  0.1666568756581057  0.5388641089449635   F   F   F
  0.5833421456183316  0.4166568756581057  0.5388641089449635   F   F   F
  0.5833421456183316  0.6666568756581057  0.5388641089449635   F   F   F
  0.5833421456183316  0.9166568756581057  0.5388641089449635   F   F   F
  0.8333421456183316  0.1666568756581057  0.5388641089449635   F   F   F
  0.8333421456183316  0.4166568756581057  0.5388641089449635   F   F   F
  0.8333421456183316  0.6666568756581057  0.5388641089449635   F   F   F
  0.8333421456183316  0.9166568756581057  0.5388641089449635   F   F   F
  0.1666567714389657  0.0833423488661396  0.4763640990662594   F   F   F
  0.1666567714389657  0.3333423488661396  0.4763640990662594   F   F   F
  0.1666567714389657  0.5833423488661396  0.4763640990662594   F   F   F
  0.1666567714389657  0.8333423488661396  0.4763640990662594   F   F   F
  0.4166567714389657  0.0833423488661396  0.4763640990662594   F   F   F
  0.4166567714389657  0.3333423488661396  0.4763640990662594   F   F   F
  0.4166567714389657  0.5833423488661396  0.4763640990662594   F   F   F
  0.4166567714389657  0.8333423488661396  0.4763640990662594   F   F   F
  0.6666567714389657  0.0833423488661396  0.4763640990662594   F   F   F
  0.6666567714389657  0.3333423488661396  0.4763640990662594   F   F   F
  0.6666567714389657  0.5833423488661396  0.4763640990662594   F   F   F
  0.6666567714389657  0.8333423488661396  0.4763640990662594   F   F   F
  0.9166567714389657  0.0833423488661396  0.4763640990662594   F   F   F
  0.9166567714389657  0.3333423488661396  0.4763640990662594   F   F   F
  0.9166567714389657  0.5833423488661396  0.4763640990662594   F   F   F
  0.9166567714389657  0.8333423488661396  0.4763640990662594   F   F   F
  0.0833420212035350  0.1666567869075877  0.6638641089449635   F   F   F
  0.0833420212035350  0.4166567869075877  0.6638641089449635   F   F   F
  0.0833420212035350  0.6666567869075877  0.6638641089449635   F   F   F
  0.0833420212035350  0.9166567869075877  0.6638641089449635   F   F   F
  0.3333420212035350  0.1666567869075877  0.6638641089449635   F   F   F
  0.3333420212035350  0.4166567869075877  0.6638641089449635   F   F   F
  0.3333420212035350  0.6666567869075877  0.6638641089449635   F   F   F
  0.3333420212035350  0.9166567869075877  0.6638641089449635   F   F   F
  0.5833420212035350  0.1666567869075877  0.6638641089449635   F   F   F
  0.5833420212035350  0.4166567869075877  0.6638641089449635   F   F   F
  0.5833420212035350  0.6666567869075877  0.6638641089449635   F   F   F
  0.5833420212035350  0.9166567869075877  0.6638641089449635   F   F   F
  0.8333420212035350  0.1666567869075877  0.6638641089449635   F   F   F
  0.8333420212035350  0.4166567869075877  0.6638641089449635   F   F   F
  0.8333420212035350  0.6666567869075877  0.6638641089449635   F   F   F
  0.8333420212035350  0.9166567869075877  0.6638641089449635   F   F   F
  0.1666566470241690  0.0833422601156144  0.6013640990662594   F   F   F
  0.1666566470241690  0.3333422601156215  0.6013640990662594   F   F   F
  0.1666566470241690  0.5833422601156144  0.6013640990662594   F   F   F
  0.1666566470241690  0.8333422601156144  0.6013640990662594   F   F   F
  0.4166566470241690  0.0833422601156144  0.6013640990662594   F   F   F
  0.4166566470241690  0.3333422601156215  0.6013640990662594   F   F   F
  0.4166566470241690  0.5833422601156144  0.6013640990662594   F   F   F
  0.4166566470241690  0.8333422601156144  0.6013640990662594   F   F   F
  0.6666566470241690  0.0833422601156144  0.6013640990662594   F   F   F
  0.6666566470241690  0.3333422601156215  0.6013640990662594   F   F   F
  0.6666566470241690  0.5833422601156144  0.6013640990662594   F   F   F
  0.6666566470241690  0.8333422601156144  0.6013640990662594   F   F   F
  0.9166566470241690  0.0833422601156144  0.6013640990662594   F   F   F
  0.9166566470241690  0.3333422601156215  0.6013640990662594   F   F   F
  0.9166566470241690  0.5833422601156144  0.6013640990662594   F   F   F
  0.9166566470241690  0.8333422601156144  0.6013640990662594   F   F   F
  0.0833276867555526  0.1666715366012284  0.3390779962204817   T   T   T
  0.0833276867555526  0.4166715366012284  0.3390779962204817   T   T   T
  0.0833276867555526  0.6666715366012284  0.3390779962204817   T   T   T
  0.0833276867555526  0.9166715366012284  0.3390779962204817   T   T   T
  0.3333276867555526  0.1666715366012284  0.3390779962204817   T   T   T
  0.3333276867555526  0.4166715366012284  0.3390779962204817   T   T   T
  0.3333276867555526  0.6666715366012284  0.3390779962204817   T   T   T
  0.3333276867555526  0.9166715366012284  0.3390779962204817   T   T   T
  0.5833276867555526  0.1666715366012284  0.3390779962204817   T   T   T
  0.5833276867555526  0.4166715366012284  0.3390779962204817   T   T   T
  0.5833276867555526  0.6666715366012284  0.3390779962204817   T   T   T
  0.5833276867555526  0.9166715366012284  0.3390779962204817   T   T   T
  0.8333276867555526  0.1666715366012284  0.3390779962204817   T   T   T
  0.8333276867555526  0.4166715366012284  0.3390779962204817   T   T   T
  0.8333276867555526  0.6666715366012284  0.3390779962204817   T   T   T
  0.8333276867555526  0.9166715366012284  0.3390779962204817   T   T   T
  0.1666716235211325  0.0833276809194032  0.3984600301579349   T   T   T
  0.1666716235211325  0.3333276809194032  0.3984600301579349   T   T   T
  0.1666716235211325  0.5833276809194032  0.3984600301579349   T   T   T
  0.1666716235211325  0.8333276809194032  0.3984600301579349   T   T   T
  0.4166716235211325  0.0833276809194032  0.3984600301579349   T   T   T
  0.4166716235211325  0.3333276809194032  0.3984600301579349   T   T   T
  0.4166716235211325  0.5833276809194032  0.3984600301579349   T   T   T
  0.4166716235211325  0.8333276809194032  0.3984600301579349   T   T   T
  0.6666716235211325  0.0833276809194032  0.3984600301579349   T   T   T
  0.6666716235211325  0.3333276809194032  0.3984600301579349   T   T   T
  0.6666716235211325  0.5833276809194032  0.3984600301579349   T   T   T
  0.6666716235211325  0.8333276809194032  0.3984600301579349   T   T   T
  0.9166716235211325  0.0833276809194032  0.3984600301579349   T   T   T
  0.9166716235211325  0.3333276809194032  0.3984600301579349   T   T   T
  0.9166716235211325  0.5833276809194032  0.3984600301579349   T   T   T
  0.9166716235211325  0.8333276809194032  0.3984600301579349   T   T   T
  0.0833222007698211  0.1666770668236666  0.4611358956743672   F   F   F
  0.0833222007698211  0.4166770668236666  0.4611358956743672   F   F   F
  0.0833222007698211  0.6666770668236666  0.4611358956743672   F   F   F
  0.0833222007698211  0.9166770668236666  0.4611358956743672   F   F   F
  0.3333222007698211  0.1666770668236666  0.4611358956743672   F   F   F
  0.3333222007698211  0.4166770668236666  0.4611358956743672   F   F   F
  0.3333222007698211  0.6666770668236666  0.4611358956743672   F   F   F
  0.3333222007698211  0.9166770668236666  0.4611358956743672   F   F   F
  0.5833222007698211  0.1666770668236666  0.4611358956743672   F   F   F
  0.5833222007698211  0.4166770668236666  0.4611358956743672   F   F   F
  0.5833222007698211  0.6666770668236666  0.4611358956743672   F   F   F
  0.5833222007698211  0.9166770668236666  0.4611358956743672   F   F   F
  0.8333222007698211  0.1666770668236666  0.4611358956743672   F   F   F
  0.8333222007698211  0.4166770668236666  0.4611358956743672   F   F   F
  0.8333222007698211  0.6666770668236666  0.4611358956743672   F   F   F
  0.8333222007698211  0.9166770668236666  0.4611358956743672   F   F   F
  0.1666768765361368  0.0833222886438278  0.5236358963144099   F   F   F
  0.1666768765361368  0.3333222886438278  0.5236358963144099   F   F   F
  0.1666768765361368  0.5833222886438278  0.5236358963144099   F   F   F
  0.1666768765361368  0.8333222886438278  0.5236358963144099   F   F   F
  0.4166768765361368  0.0833222886438278  0.5236358963144099   F   F   F
  0.4166768765361368  0.3333222886438278  0.5236358963144099   F   F   F
  0.4166768765361368  0.5833222886438278  0.5236358963144099   F   F   F
  0.4166768765361368  0.8333222886438278  0.5236358963144099   F   F   F
  0.6666768765361368  0.0833222886438278  0.5236358963144099   F   F   F
  0.6666768765361368  0.3333222886438278  0.5236358963144099   F   F   F
  0.6666768765361368  0.5833222886438278  0.5236358963144099   F   F   F
  0.6666768765361368  0.8333222886438278  0.5236358963144099   F   F   F
  0.9166768765361368  0.0833222886438278  0.5236358963144099   F   F   F
  0.9166768765361368  0.3333222886438278  0.5236358963144099   F   F   F
  0.9166768765361368  0.5833222886438278  0.5236358963144099   F   F   F
  0.9166768765361368  0.8333222886438278  0.5236358963144099   F   F   F
  0.0833220763550244  0.1666769780731485  0.5861358956743672   F   F   F
  0.0833220763550244  0.4166769780731485  0.5861358956743672   F   F   F
  0.0833220763550244  0.6666769780731485  0.5861358956743672   F   F   F
  0.0833220763550244  0.9166769780731485  0.5861358956743672   F   F   F
  0.3333220763550244  0.1666769780731485  0.5861358956743672   F   F   F
  0.3333220763550244  0.4166769780731485  0.5861358956743672   F   F   F
  0.3333220763550244  0.6666769780731485  0.5861358956743672   F   F   F
  0.3333220763550244  0.9166769780731485  0.5861358956743672   F   F   F
  0.5833220763550244  0.1666769780731485  0.5861358956743672   F   F   F
  0.5833220763550244  0.4166769780731485  0.5861358956743672   F   F   F
  0.5833220763550244  0.6666769780731485  0.5861358956743672   F   F   F
  0.5833220763550244  0.9166769780731485  0.5861358956743672   F   F   F
  0.8333220763550244  0.1666769780731485  0.5861358956743672   F   F   F
  0.8333220763550244  0.4166769780731485  0.5861358956743672   F   F   F
  0.8333220763550244  0.6666769780731485  0.5861358956743672   F   F   F
  0.8333220763550244  0.9166769780731485  0.5861358956743672   F   F   F
  0.1666767521213401  0.0833221998933027  0.6486358963144099   F   F   F
  0.1666767521213401  0.3333221998933027  0.6486358963144099   F   F   F
  0.1666767521213401  0.5833221998933027  0.6486358963144099   F   F   F
  0.1666767521213401  0.8333221998933027  0.6486358963144099   F   F   F
  0.4166767521213401  0.0833221998933027  0.6486358963144099   F   F   F
  0.4166767521213401  0.3333221998933027  0.6486358963144099   F   F   F
  0.4166767521213401  0.5833221998933027  0.6486358963144099   F   F   F
  0.4166767521213401  0.8333221998933027  0.6486358963144099   F   F   F
  0.6666767521213401  0.0833221998933027  0.6486358963144099   F   F   F
  0.6666767521213401  0.3333221998933027  0.6486358963144099   F   F   F
  0.6666767521213401  0.5833221998933027  0.6486358963144099   F   F   F
  0.6666767521213401  0.8333221998933027  0.6486358963144099   F   F   F
  0.9166767521213401  0.0833221998933027  0.6486358963144099   F   F   F
  0.9166767521213401  0.3333221998933027  0.6486358963144099   F   F   F
  0.9166767521213401  0.5833221998933027  0.6486358963144099   F   F   F
  0.9166767521213401  0.8333221998933027  0.6486358963144099   F   F   F
  0.0833425000000005  0.1666574999999995  0.7015944380000008   F   F   F
  0.0833425000000005  0.4166574999999995  0.7015944380000008   F   F   F
  0.0833425000000005  0.6666574999999995  0.7015944380000008   F   F   F
  0.0833425000000005  0.9166574999999995  0.7015944380000008   F   F   F
  0.3333425000000005  0.1666574999999995  0.7015944380000008   F   F   F
  0.3333425000000005  0.4166574999999995  0.7015944380000008   F   F   F
  0.3333425000000005  0.6666574999999995  0.7015944380000008   F   F   F
  0.3333425000000005  0.9166574999999995  0.7015944380000008   F   F   F
  0.5833425000000005  0.1666574999999995  0.7015944380000008   F   F   F
  0.5833425000000005  0.4166574999999995  0.7015944380000008   F   F   F
  0.5833425000000005  0.6666574999999995  0.7015944380000008   F   F   F
  0.5833425000000005  0.9166574999999995  0.7015944380000008   F   F   F
  0.8333425000000005  0.1666574999999995  0.7015944380000008   F   F   F
  0.8333425000000005  0.4166574999999995  0.7015944380000008   F   F   F
  0.8333425000000005  0.6666574999999995  0.7015944380000008   F   F   F
  0.8333425000000005  0.9166574999999995  0.7015944380000008   F   F   F
  0.3333300000000000  0.4166700000000000  0.2990800000000000   T   T   T
 
  0.00000000E+00  0.00000000E+00  0.00000000E+00
  0.00000000E+00  0.00000000E+00  0.00000000E+00
  0.00000000E+00  0.00000000E+00  0.00000000E+00
  0.00000000E+00  0.00000000E+00  0.00000000E+00
  0.00000000E+00  0.00000000E+00  0.00000000E+00
  0.00000000E+00  0.00000000E+00  0.00000000E+00
  0.00000000E+00  0.00000000E+00  0.00000000E+00
  0.00000000E+00  0.00000000E+00  0.00000000E+00
  0.00000000E+00  0.00000000E+00  0.00000000E+00
  0.00000000E+00  0.00000000E+00  0.00000000E+00
  0.00000000E+00  0.00000000E+00  0.00000000E+00
  0.00000000E+00  0.00000000E+00  0.00000000E+00
  0.00000000E+00  0.00000000E+00  0.00000000E+00
  0.00000000E+00  0.00000000E+00  0.00000000E+00
  0.00000000E+00  0.00000000E+00  0.00000000E+00
  0.00000000E+00  0.00000000E+00  0.00000000E+00
  0.00000000E+00  0.00000000E+00  0.00000000E+00
  0.00000000E+00  0.00000000E+00  0.00000000E+00
  0.00000000E+00  0.00000000E+00  0.00000000E+00
  0.00000000E+00  0.00000000E+00  0.00000000E+00
  0.00000000E+00  0.00000000E+00  0.00000000E+00
  0.00000000E+00  0.00000000E+00  0.00000000E+00
  0.00000000E+00  0.00000000E+00  0.00000000E+00
  0.00000000E+00  0.00000000E+00  0.00000000E+00
  0.00000000E+00  0.00000000E+00  0.00000000E+00
  0.00000000E+00  0.00000000E+00  0.00000000E+00
  0.00000000E+00  0.00000000E+00  0.00000000E+00
  0.00000000E+00  0.00000000E+00  0.00000000E+00
  0.00000000E+00  0.00000000E+00  0.00000000E+00
  0.00000000E+00  0.00000000E+00  0.00000000E+00
  0.00000000E+00  0.00000000E+00  0.00000000E+00
  0.00000000E+00  0.00000000E+00  0.00000000E+00
  0.00000000E+00  0.00000000E+00  0.00000000E+00
  0.00000000E+00  0.00000000E+00  0.00000000E+00
  0.00000000E+00  0.00000000E+00  0.00000000E+00
  0.00000000E+00  0.00000000E+00  0.00000000E+00
  0.00000000E+00  0.00000000E+00  0.00000000E+00
  0.00000000E+00  0.00000000E+00  0.00000000E+00
  0.00000000E+00  0.00000000E+00  0.00000000E+00
  0.00000000E+00  0.00000000E+00  0.00000000E+00
  0.00000000E+00  0.00000000E+00  0.00000000E+00
  0.00000000E+00  0.00000000E+00  0.00000000E+00
  0.00000000E+00  0.00000000E+00  0.00000000E+00
  0.00000000E+00  0.00000000E+00  0.00000000E+00
  0.00000000E+00  0.00000000E+00  0.00000000E+00
  0.00000000E+00  0.00000000E+00  0.00000000E+00
  0.00000000E+00  0.00000000E+00  0.00000000E+00
  0.00000000E+00  0.00000000E+00  0.00000000E+00
  0.00000000E+00  0.00000000E+00  0.00000000E+00
  0.00000000E+00  0.00000000E+00  0.00000000E+00
  0.00000000E+00  0.00000000E+00  0.00000000E+00
  0.00000000E+00  0.00000000E+00  0.00000000E+00
  0.00000000E+00  0.00000000E+00  0.00000000E+00
  0.00000000E+00  0.00000000E+00  0.00000000E+00
  0.00000000E+00  0.00000000E+00  0.00000000E+00
  0.00000000E+00  0.00000000E+00  0.00000000E+00
  0.00000000E+00  0.00000000E+00  0.00000000E+00
  0.00000000E+00  0.00000000E+00  0.00000000E+00
  0.00000000E+00  0.00000000E+00  0.00000000E+00
  0.00000000E+00  0.00000000E+00  0.00000000E+00
  0.00000000E+00  0.00000000E+00  0.00000000E+00
  0.00000000E+00  0.00000000E+00  0.00000000E+00
  0.00000000E+00  0.00000000E+00  0.00000000E+00
  0.00000000E+00  0.00000000E+00  0.00000000E+00
  0.00000000E+00  0.00000000E+00  0.00000000E+00
  0.00000000E+00  0.00000000E+00  0.00000000E+00
  0.00000000E+00  0.00000000E+00  0.00000000E+00
  0.00000000E+00  0.00000000E+00  0.00000000E+00
  0.00000000E+00  0.00000000E+00  0.00000000E+00
  0.00000000E+00  0.00000000E+00  0.00000000E+00
  0.00000000E+00  0.00000000E+00  0.00000000E+00
  0.00000000E+00  0.00000000E+00  0.00000000E+00
  0.00000000E+00  0.00000000E+00  0.00000000E+00
  0.00000000E+00  0.00000000E+00  0.00000000E+00
  0.00000000E+00  0.00000000E+00  0.00000000E+00
  0.00000000E+00  0.00000000E+00  0.00000000E+00
  0.00000000E+00  0.00000000E+00  0.00000000E+00
  0.00000000E+00  0.00000000E+00  0.00000000E+00
  0.00000000E+00  0.00000000E+00  0.00000000E+00
  0.00000000E+00  0.00000000E+00  0.00000000E+00
  0.00000000E+00  0.00000000E+00  0.00000000E+00
  0.00000000E+00  0.00000000E+00  0.00000000E+00
  0.00000000E+00  0.00000000E+00  0.00000000E+00
  0.00000000E+00  0.00000000E+00  0.00000000E+00
  0.00000000E+00  0.00000000E+00  0.00000000E+00
  0.00000000E+00  0.00000000E+00  0.00000000E+00
  0.00000000E+00  0.00000000E+00  0.00000000E+00
  0.00000000E+00  0.00000000E+00  0.00000000E+00
  0.00000000E+00  0.00000000E+00  0.00000000E+00
  0.00000000E+00  0.00000000E+00  0.00000000E+00
  0.00000000E+00  0.00000000E+00  0.00000000E+00
  0.00000000E+00  0.00000000E+00  0.00000000E+00
  0.00000000E+00  0.00000000E+00  0.00000000E+00
  0.00000000E+00  0.00000000E+00  0.00000000E+00
  0.00000000E+00  0.00000000E+00  0.00000000E+00
  0.00000000E+00  0.00000000E+00  0.00000000E+00
  0.00000000E+00  0.00000000E+00  0.00000000E+00
  0.00000000E+00  0.00000000E+00  0.00000000E+00
  0.00000000E+00  0.00000000E+00  0.00000000E+00
  0.00000000E+00  0.00000000E+00  0.00000000E+00
  0.00000000E+00  0.00000000E+00  0.00000000E+00
  0.00000000E+00  0.00000000E+00  0.00000000E+00
  0.00000000E+00  0.00000000E+00  0.00000000E+00
  0.00000000E+00  0.00000000E+00  0.00000000E+00
  0.00000000E+00  0.00000000E+00  0.00000000E+00
  0.00000000E+00  0.00000000E+00  0.00000000E+00
  0.00000000E+00  0.00000000E+00  0.00000000E+00
  0.00000000E+00  0.00000000E+00  0.00000000E+00
  0.00000000E+00  0.00000000E+00  0.00000000E+00
  0.00000000E+00  0.00000000E+00  0.00000000E+00
  0.00000000E+00  0.00000000E+00  0.00000000E+00
  0.00000000E+00  0.00000000E+00  0.00000000E+00
  0.00000000E+00  0.00000000E+00  0.00000000E+00
  0.00000000E+00  0.00000000E+00  0.00000000E+00
  0.00000000E+00  0.00000000E+00  0.00000000E+00
  0.00000000E+00  0.00000000E+00  0.00000000E+00
  0.00000000E+00  0.00000000E+00  0.00000000E+00
  0.00000000E+00  0.00000000E+00  0.00000000E+00
  0.00000000E+00  0.00000000E+00  0.00000000E+00
  0.00000000E+00  0.00000000E+00  0.00000000E+00
  0.00000000E+00  0.00000000E+00  0.00000000E+00
  0.00000000E+00  0.00000000E+00  0.00000000E+00
  0.00000000E+00  0.00000000E+00  0.00000000E+00
  0.00000000E+00  0.00000000E+00  0.00000000E+00
  0.00000000E+00  0.00000000E+00  0.00000000E+00
  0.00000000E+00  0.00000000E+00  0.00000000E+00
  0.00000000E+00  0.00000000E+00  0.00000000E+00
  0.00000000E+00  0.00000000E+00  0.00000000E+00
  0.00000000E+00  0.00000000E+00  0.00000000E+00
  0.00000000E+00  0.00000000E+00  0.00000000E+00
  0.00000000E+00  0.00000000E+00  0.00000000E+00
  0.00000000E+00  0.00000000E+00  0.00000000E+00
  0.00000000E+00  0.00000000E+00  0.00000000E+00
  0.00000000E+00  0.00000000E+00  0.00000000E+00
  0.00000000E+00  0.00000000E+00  0.00000000E+00
  0.00000000E+00  0.00000000E+00  0.00000000E+00
  0.00000000E+00  0.00000000E+00  0.00000000E+00
  0.00000000E+00  0.00000000E+00  0.00000000E+00
  0.00000000E+00  0.00000000E+00  0.00000000E+00
  0.00000000E+00  0.00000000E+00  0.00000000E+00
  0.00000000E+00  0.00000000E+00  0.00000000E+00
  0.00000000E+00  0.00000000E+00  0.00000000E+00
  0.00000000E+00  0.00000000E+00  0.00000000E+00
  0.00000000E+00  0.00000000E+00  0.00000000E+00
  0.00000000E+00  0.00000000E+00  0.00000000E+00
  0.00000000E+00  0.00000000E+00  0.00000000E+00
  0.00000000E+00  0.00000000E+00  0.00000000E+00
  0.00000000E+00  0.00000000E+00  0.00000000E+00
  0.00000000E+00  0.00000000E+00  0.00000000E+00
  0.00000000E+00  0.00000000E+00  0.00000000E+00
  0.00000000E+00  0.00000000E+00  0.00000000E+00
  0.00000000E+00  0.00000000E+00  0.00000000E+00
  0.00000000E+00  0.00000000E+00  0.00000000E+00
  0.00000000E+00  0.00000000E+00  0.00000000E+00
  0.00000000E+00  0.00000000E+00  0.00000000E+00
  0.00000000E+00  0.00000000E+00  0.00000000E+00
  0.00000000E+00  0.00000000E+00  0.00000000E+00
  0.00000000E+00  0.00000000E+00  0.00000000E+00
  0.00000000E+00  0.00000000E+00  0.00000000E+00
  0.00000000E+00  0.00000000E+00  0.00000000E+00
  0.00000000E+00  0.00000000E+00  0.00000000E+00
  0.00000000E+00  0.00000000E+00  0.00000000E+00
  0.00000000E+00  0.00000000E+00  0.00000000E+00
  0.00000000E+00  0.00000000E+00  0.00000000E+00
  0.00000000E+00  0.00000000E+00  0.00000000E+00
  0.00000000E+00  0.00000000E+00  0.00000000E+00
  0.00000000E+00  0.00000000E+00  0.00000000E+00
  0.00000000E+00  0.00000000E+00  0.00000000E+00
  0.00000000E+00  0.00000000E+00  0.00000000E+00
  0.00000000E+00  0.00000000E+00  0.00000000E+00
  0.00000000E+00  0.00000000E+00  0.00000000E+00
  0.00000000E+00  0.00000000E+00  0.00000000E+00
  0.00000000E+00  0.00000000E+00  0.00000000E+00
  0.00000000E+00  0.00000000E+00  0.00000000E+00
  0.00000000E+00  0.00000000E+00  0.00000000E+00
  0.00000000E+00  0.00000000E+00  0.00000000E+00
  0.00000000E+00  0.00000000E+00  0.00000000E+00
  0.00000000E+00  0.00000000E+00  0.00000000E+00
  0.00000000E+00  0.00000000E+00  0.00000000E+00
  0.00000000E+00  0.00000000E+00  0.00000000E+00
  0.00000000E+00  0.00000000E+00  0.00000000E+00
  0.00000000E+00  0.00000000E+00  0.00000000E+00
  0.00000000E+00  0.00000000E+00  0.00000000E+00
  0.00000000E+00  0.00000000E+00  0.00000000E+00
  0.00000000E+00  0.00000000E+00  0.00000000E+00
  0.00000000E+00  0.00000000E+00  0.00000000E+00
  0.00000000E+00  0.00000000E+00  0.00000000E+00
  0.00000000E+00  0.00000000E+00  0.00000000E+00
  0.00000000E+00  0.00000000E+00  0.00000000E+00
  0.00000000E+00  0.00000000E+00  0.00000000E+00
  0.00000000E+00  0.00000000E+00  0.00000000E+00
  0.00000000E+00  0.00000000E+00  0.00000000E+00
  0.00000000E+00  0.00000000E+00  0.00000000E+00
  0.00000000E+00  0.00000000E+00  0.00000000E+00
  0.00000000E+00  0.00000000E+00  0.00000000E+00
  0.00000000E+00  0.00000000E+00  0.00000000E+00
  0.00000000E+00  0.00000000E+00  0.00000000E+00
  0.00000000E+00  0.00000000E+00  0.00000000E+00
  0.00000000E+00  0.00000000E+00  0.00000000E+00
  0.00000000E+00  0.00000000E+00  0.00000000E+00
  0.00000000E+00  0.00000000E+00  0.00000000E+00
  0.00000000E+00  0.00000000E+00  0.00000000E+00
  0.00000000E+00  0.00000000E+00  0.00000000E+00
  0.00000000E+00  0.00000000E+00  0.00000000E+00
  0.00000000E+00  0.00000000E+00  0.00000000E+00
  0.00000000E+00  0.00000000E+00  0.00000000E+00
  0.00000000E+00  0.00000000E+00  0.00000000E+00
  0.00000000E+00  0.00000000E+00  0.00000000E+00
