Platinum (Pt) Crystal                   
    1.000000000000000     
    15.0000000000000000    0.0000000000000000    0.0000000000000000
     0.0000000000000000   16.0000000000000000    0.0000000000000000
     0.0000000000000000    0.0000000000000000   17.0000000000000000
   Pt
     4
Direct
  0.4183877292199125  0.4548729289350475  0.5588256042716794
  0.5824330572807829  0.4550777660413909  0.5589356470227311
  0.5804982855968923  0.6066142271838458  0.5588366029846558
  0.4186809279024123  0.6084350778397157  0.5586962633680129
 
  0.00000000E+00  0.00000000E+00  0.00000000E+00
  0.00000000E+00  0.00000000E+00  0.00000000E+00
  0.00000000E+00  0.00000000E+00  0.00000000E+00
  0.00000000E+00  0.00000000E+00  0.00000000E+00
