Platinum (Pt) Crystal
1.0
15.0000000000  0.0000000000  0.0000000000
0.0000000000  16.0000000000  0.0000000000
0.0000000000  0.0000000000  17.0000000000
Pt
4
Cartesian
 6.26 7.26 9.5
 8.74 7.26 9.5
 8.74 9.74 9.5
 6.26 9.74 9.5
