Zn96 H16 Pt4 O96                        
    1.000000000000000     
    12.9159908295000001    0.0000000000000000    0.0000000000000000
    -6.4575307008999996   11.1858444632000005    0.0000000000000000
     0.0000000000000000    0.0000000000000000   41.8715667725000031
   Zn   O    H    Pt   O    H 
    96    96    16     4     1     2
Selective dynamics
Direct
  0.0833422689999992  0.1666569710000019  0.4138641059999983   F   F   F
  0.0833422689999992  0.4166569710000019  0.4138641059999983   F   F   F
  0.0833422689999992  0.6666569710000019  0.4138641059999983   F   F   F
  0.0833422689999992  0.9166569710000019  0.4138641059999983   F   F   F
  0.3333422540000015  0.1666569710000019  0.4138641059999983   F   F   F
  0.3333422540000015  0.4166569710000019  0.4138641059999983   F   F   F
  0.3333422540000015  0.6666569710000019  0.4138641059999983   F   F   F
  0.3333422540000015  0.9166569710000019  0.4138641059999983   F   F   F
  0.5833422540000015  0.1666569710000019  0.4138641059999983   F   F   F
  0.5833422540000015  0.4166569710000019  0.4138641059999983   F   F   F
  0.5833422540000015  0.6666569710000019  0.4138641059999983   F   F   F
  0.5833422540000015  0.9166569710000019  0.4138641059999983   F   F   F
  0.8333422540000015  0.1666569710000019  0.4138641059999983   F   F   F
  0.8333422540000015  0.4166569710000019  0.4138641059999983   F   F   F
  0.8333422540000015  0.6666569710000019  0.4138641059999983   F   F   F
  0.8333422540000015  0.9166569710000019  0.4138641059999983   F   F   F
  0.1666568959999992  0.0833424400000027  0.3513641059999983   F   F   F
  0.1666568959999992  0.3333424329999986  0.3513641059999983   F   F   F
  0.1666568959999992  0.5833424329999986  0.3513641059999983   F   F   F
  0.1666568959999992  0.8333424329999986  0.3513641059999983   F   F   F
  0.4166569109999969  0.0833424400000027  0.3513641059999983   F   F   F
  0.4166569109999969  0.3333424329999986  0.3513641059999983   F   F   F
  0.4166569109999969  0.5833424329999986  0.3513641059999983   F   F   F
  0.4166569109999969  0.8333424329999986  0.3513641059999983   F   F   F
  0.6666569109999969  0.0833424400000027  0.3513641059999983   F   F   F
  0.6666569109999969  0.3333424329999986  0.3513641059999983   F   F   F
  0.6666569109999969  0.5833424329999986  0.3513641059999983   F   F   F
  0.6666569109999969  0.8333424329999986  0.3513641059999983   F   F   F
  0.9166569109999969  0.0833424400000027  0.3513641059999983   F   F   F
  0.9166569109999969  0.3333424329999986  0.3513641059999983   F   F   F
  0.9166569109999969  0.5833424329999986  0.3513641059999983   F   F   F
  0.9166569109999969  0.8333424329999986  0.3513641059999983   F   F   F
  0.0833421419999993  0.1666568819999981  0.5388641360000008   F   F   F
  0.0833421419999993  0.4166568819999981  0.5388641360000008   F   F   F
  0.0833421419999993  0.6666568520000027  0.5388641360000008   F   F   F
  0.0833421419999993  0.9166568520000027  0.5388641360000008   F   F   F
  0.3333421350000023  0.1666568819999981  0.5388641360000008   F   F   F
  0.3333421350000023  0.4166568819999981  0.5388641360000008   F   F   F
  0.3333421350000023  0.6666568520000027  0.5388641360000008   F   F   F
  0.3333421350000023  0.9166568520000027  0.5388641360000008   F   F   F
  0.5833421350000023  0.1666568819999981  0.5388641360000008   F   F   F
  0.5833421350000023  0.4166568819999981  0.5388641360000008   F   F   F
  0.5833421350000023  0.6666568520000027  0.5388641360000008   F   F   F
  0.5833421350000023  0.9166568520000027  0.5388641360000008   F   F   F
  0.8333421350000023  0.1666568819999981  0.5388641360000008   F   F   F
  0.8333421350000023  0.4166568819999981  0.5388641360000008   F   F   F
  0.8333421350000023  0.6666568520000027  0.5388641360000008   F   F   F
  0.8333421350000023  0.9166568520000027  0.5388641360000008   F   F   F
  0.1666567770000000  0.0833423509999989  0.4763641059999983   F   F   F
  0.1666567770000000  0.3333423440000018  0.4763641059999983   F   F   F
  0.1666567770000000  0.5833423730000007  0.4763641059999983   F   F   F
  0.1666567770000000  0.8333423730000007  0.4763641059999983   F   F   F
  0.4166567919999977  0.0833423509999989  0.4763641059999983   F   F   F
  0.4166567919999977  0.3333423440000018  0.4763641059999983   F   F   F
  0.4166567919999977  0.5833423730000007  0.4763641059999983   F   F   F
  0.4166567919999977  0.8333423730000007  0.4763641059999983   F   F   F
  0.6666567919999977  0.0833423509999989  0.4763641059999983   F   F   F
  0.6666567919999977  0.3333423440000018  0.4763641059999983   F   F   F
  0.6666567919999977  0.5833423730000007  0.4763641059999983   F   F   F
  0.6666567919999977  0.8333423730000007  0.4763641059999983   F   F   F
  0.9166567919999977  0.0833423509999989  0.4763641059999983   F   F   F
  0.9166567919999977  0.3333423440000018  0.4763641059999983   F   F   F
  0.9166567919999977  0.5833423730000007  0.4763641059999983   F   F   F
  0.9166567919999977  0.8333423730000007  0.4763641059999983   F   F   F
  0.0857376349479189  0.1683615594076064  0.6607134459717487   T   T   T
  0.0863251256458180  0.4206503139783364  0.6612291105545930   T   T   T
  0.0847695786121293  0.6630532844723208  0.6596205738545567   T   T   T
  0.0839543687162692  0.9207216121355712  0.6589216723227597   T   T   T
  0.3572625252647200  0.1787560948426338  0.6713543471004927   T   T   T
  0.3563319319938061  0.4305807221523429  0.6701853651441990   T   T   T
  0.3607252608825311  0.6758111332153005  0.6718298007976548   T   T   T
  0.3395087512219098  0.9169344751571832  0.6568555867078407   T   T   T
  0.5747643617588742  0.1741532981546338  0.6714563988873132   T   T   T
  0.5780982518405546  0.4031750546029992  0.6730037473733896   T   T   T
  0.5876545918844147  0.6678175526619182  0.6638521298972571   T   T   T
  0.5825687181680437  0.9051218335652261  0.6726539970133764   T   T   T
  0.8277500696814396  0.1688771420093691  0.6612724097244141   T   T   T
  0.8198525657692681  0.4353817005151437  0.6729216141368665   T   T   T
  0.8172367746630606  0.6628253687511226  0.6692792735701026   T   T   T
  0.8186762788416849  0.8980071773193244  0.6707596906454821   T   T   T
  0.1742384020973517  0.0889360401952060  0.6038361541061434   T   T   T
  0.1727682928926911  0.3373758113442086  0.6041649123763992   T   T   T
  0.1738350459023096  0.5862956457106148  0.6039298424638129   T   T   T
  0.1675337015378986  0.8339016139377946  0.6006624975910569   T   T   T
  0.4206217815391014  0.0881853482976816  0.6007342067812175   T   T   T
  0.4208578551332621  0.3372077898204189  0.6033548543045576   T   T   T
  0.4195373556757702  0.5837835516905664  0.6012991488958145   T   T   T
  0.4216541330284833  0.8329271994958715  0.6020778219326498   T   T   T
  0.6612038005926518  0.0824205392447411  0.6066751291821341   T   T   T
  0.6683745403904767  0.3352195924915958  0.6034048311080038   T   T   T
  0.6654522898548899  0.5803815604452324  0.6015330284084506   T   T   T
  0.6678596787312591  0.8357345878369012  0.6008541431810488   T   T   T
  0.9144448854478388  0.0817862037990431  0.6044033347687447   T   T   T
  0.9146030106979105  0.3370795541904091  0.6049294506463994   T   T   T
  0.9137680901949705  0.5832400945176452  0.6031532450465207   T   T   T
  0.9132418942529288  0.8319629459136790  0.6029798753172232   T   T   T
  0.0833223240000009  0.1666771619999992  0.3361358940000017   F   F   F
  0.0833223240000009  0.4166771769999968  0.3361358940000017   F   F   F
  0.0833223240000009  0.6666771769999968  0.3361358940000017   F   F   F
  0.0833223240000009  0.9166771769999968  0.3361358940000017   F   F   F
  0.3333223160000003  0.1666771619999992  0.3361358940000017   F   F   F
  0.3333223160000003  0.4166771769999968  0.3361358940000017   F   F   F
  0.3333223160000003  0.6666771769999968  0.3361358940000017   F   F   F
  0.3333223160000003  0.9166771769999968  0.3361358940000017   F   F   F
  0.5833223460000028  0.1666771619999992  0.3361358940000017   F   F   F
  0.5833223460000028  0.4166771769999968  0.3361358940000017   F   F   F
  0.5833223460000028  0.6666771769999968  0.3361358940000017   F   F   F
  0.5833223460000028  0.9166771769999968  0.3361358940000017   F   F   F
  0.8333223460000028  0.1666771619999992  0.3361358940000017   F   F   F
  0.8333223460000028  0.4166771769999968  0.3361358940000017   F   F   F
  0.8333223460000028  0.6666771769999968  0.3361358940000017   F   F   F
  0.8333223460000028  0.9166771769999968  0.3361358940000017   F   F   F
  0.1666769979999998  0.0833223759999981  0.3986358940000017   F   F   F
  0.1666769979999998  0.3333223759999981  0.3986358940000017   F   F   F
  0.1666769979999998  0.5833224060000006  0.3986358940000017   F   F   F
  0.1666769979999998  0.8333224060000006  0.3986358940000017   F   F   F
  0.4166769979999998  0.0833223759999981  0.3986358940000017   F   F   F
  0.4166769979999998  0.3333223759999981  0.3986358940000017   F   F   F
  0.4166769979999998  0.5833224060000006  0.3986358940000017   F   F   F
  0.4166769979999998  0.8333224060000006  0.3986358940000017   F   F   F
  0.6666769979999998  0.0833223759999981  0.3986358940000017   F   F   F
  0.6666769979999998  0.3333223759999981  0.3986358940000017   F   F   F
  0.6666769979999998  0.5833224060000006  0.3986358940000017   F   F   F
  0.6666769979999998  0.8333224060000006  0.3986358940000017   F   F   F
  0.9166769979999998  0.0833223759999981  0.3986358940000017   F   F   F
  0.9166769979999998  0.3333223759999981  0.3986358940000017   F   F   F
  0.9166769979999998  0.5833224060000006  0.3986358940000017   F   F   F
  0.9166769979999998  0.8333224060000006  0.3986358940000017   F   F   F
  0.0833221970000011  0.1666770730000025  0.4611358940000017   F   F   F
  0.0833221970000011  0.4166770579999977  0.4611358940000017   F   F   F
  0.0833221970000011  0.6666770579999977  0.4611358940000017   F   F   F
  0.0833221970000011  0.9166770579999977  0.4611358940000017   F   F   F
  0.3333221970000011  0.1666770730000025  0.4611358940000017   F   F   F
  0.3333221970000011  0.4166770579999977  0.4611358940000017   F   F   F
  0.3333221970000011  0.6666770579999977  0.4611358940000017   F   F   F
  0.3333221970000011  0.9166770579999977  0.4611358940000017   F   F   F
  0.5833221669999986  0.1666770730000025  0.4611358940000017   F   F   F
  0.5833221669999986  0.4166770579999977  0.4611358940000017   F   F   F
  0.5833221669999986  0.6666770579999977  0.4611358940000017   F   F   F
  0.5833221669999986  0.9166770579999977  0.4611358940000017   F   F   F
  0.8333221669999986  0.1666770730000025  0.4611358940000017   F   F   F
  0.8333221669999986  0.4166770579999977  0.4611358940000017   F   F   F
  0.8333221669999986  0.6666770579999977  0.4611358940000017   F   F   F
  0.8333221669999986  0.9166770579999977  0.4611358940000017   F   F   F
  0.1666768790000006  0.0833222870000014  0.5236359239999970   F   F   F
  0.1666768790000006  0.3333222870000014  0.5236359239999970   F   F   F
  0.1666768790000006  0.5833222870000014  0.5236359239999970   F   F   F
  0.1666768790000006  0.8333222870000014  0.5236359239999970   F   F   F
  0.4166768790000006  0.0833222870000014  0.5236359239999970   F   F   F
  0.4166768790000006  0.3333222870000014  0.5236359239999970   F   F   F
  0.4166768790000006  0.5833222870000014  0.5236359239999970   F   F   F
  0.4166768790000006  0.8333222870000014  0.5236359239999970   F   F   F
  0.6666768790000006  0.0833222870000014  0.5236359239999970   F   F   F
  0.6666768790000006  0.3333222870000014  0.5236359239999970   F   F   F
  0.6666768790000006  0.5833222870000014  0.5236359239999970   F   F   F
  0.6666768790000006  0.8333222870000014  0.5236359239999970   F   F   F
  0.9166768790000006  0.0833222870000014  0.5236359239999970   F   F   F
  0.9166768790000006  0.3333222870000014  0.5236359239999970   F   F   F
  0.9166768790000006  0.5833222870000014  0.5236359239999970   F   F   F
  0.9166768790000006  0.8333222870000014  0.5236359239999970   F   F   F
  0.0837546163895889  0.1677518478887586  0.5895055266379463   T   T   T
  0.0837092442620128  0.4172526993461026  0.5892668216680682   T   T   T
  0.0847525215365490  0.6650917847030565  0.5880438071838459   T   T   T
  0.0847039887780040  0.9204605443419183  0.5883165609445088   T   T   T
  0.3346714577154838  0.1695706983045356  0.5862886989509332   T   T   T
  0.3333374970447208  0.4162377203599256  0.5862245326320454   T   T   T
  0.3347257693977350  0.6675073854365287  0.5862603136915685   T   T   T
  0.3346461236168932  0.9161751458270176  0.5868137307385850   T   T   T
  0.5876320702264648  0.1681946556686596  0.5866097806561087   T   T   T
  0.5838860743246168  0.4142388850569525  0.5856294826552347   T   T   T
  0.5858338486911892  0.6688341048363727  0.5857103608989073   T   T   T
  0.5865270200082375  0.9227248969733722  0.5864455304250004   T   T   T
  0.8317980585100402  0.1676741254012538  0.5900990116720812   T   T   T
  0.8358976461831530  0.4189566508664337  0.5866214584855172   T   T   T
  0.8350997343735228  0.6685336624192943  0.5862940492514801   T   T   T
  0.8372852326473584  0.9203713147391442  0.5865244486359710   T   T   T
  0.1809082502761928  0.0914942830703824  0.6559672604582012   T   T   T
  0.1769253029283590  0.3398471785860808  0.6556029414692791   T   T   T
  0.1839870817524633  0.5923071731913409  0.6557713435837176   T   T   T
  0.1675920653334396  0.8338533455786303  0.6523673602480988   T   T   T
  0.4142370763891641  0.0801224796490526  0.6475561889181300   T   T   T
  0.4145136597806396  0.3348551681482151  0.6495000223496104   T   T   T
  0.4172639664910776  0.5837155075885989  0.6476362324793602   T   T   T
  0.4210143263949707  0.8325583394589322  0.6497407009199658   T   T   T
  0.6557476200699985  0.0796095819648470  0.6576633438445887   T   T   T
  0.6742898090914189  0.3332017952124933  0.6496262895203274   T   T   T
  0.6592104990633960  0.5731696885596929  0.6472589002333905   T   T   T
  0.6692389030389968  0.8401667217233193  0.6470669515418500   T   T   T
  0.9129442931531739  0.0780323192243077  0.6564594382698323   T   T   T
  0.9149303091847101  0.3426178366221219  0.6566100259456287   T   T   T
  0.9193729465581965  0.5925898935189932  0.6512280939223053   T   T   T
  0.9168038702344954  0.8327942092406673  0.6514085228687965   T   T   T
  0.0833225029999980  0.1666775050000027  0.3114693160000002   F   F   F
  0.0833225029999980  0.4166775050000027  0.3114693160000002   F   F   F
  0.0833225029999980  0.6666774750000002  0.3114693160000002   F   F   F
  0.0833225029999980  0.9166774750000002  0.3114693160000002   F   F   F
  0.3333224949999973  0.1666775050000027  0.3114693160000002   F   F   F
  0.3333224949999973  0.4166775050000027  0.3114693160000002   F   F   F
  0.3333224949999973  0.6666774750000002  0.3114693160000002   F   F   F
  0.3333224949999973  0.9166774750000002  0.3114693160000002   F   F   F
  0.5833225249999998  0.1666775050000027  0.3114693160000002   F   F   F
  0.5833225249999998  0.4166775050000027  0.3114693160000002   F   F   F
  0.5833225249999998  0.6666774750000002  0.3114693160000002   F   F   F
  0.5833225249999998  0.9166774750000002  0.3114693160000002   F   F   F
  0.8333225249999998  0.1666775050000027  0.3114693160000002   F   F   F
  0.8333225249999998  0.4166775050000027  0.3114693160000002   F   F   F
  0.8333225249999998  0.6666774750000002  0.3114693160000002   F   F   F
  0.8333225249999998  0.9166774750000002  0.3114693160000002   F   F   F
  0.5111008023430024  0.5205901228188561  0.7165830276771709   T   T   T
  0.7314362363840846  0.5338053006044113  0.7176693052225949   T   T   T
  0.5224831878801156  0.7489134220184743  0.7159732536130600   T   T   T
  0.7193691420609325  0.7335485589596992  0.7151206852210241   T   T   T
  0.4985240230596274  0.2395106559339882  0.6988095014712474   T   T   T
  0.3805138627476845  0.4930788787784071  0.7248951331868220   T   T   T
  0.4561185534751391  0.3861327211152005  0.7256863819270207   T   T   T
 
  0.00000000E+00  0.00000000E+00  0.00000000E+00
  0.00000000E+00  0.00000000E+00  0.00000000E+00
  0.00000000E+00  0.00000000E+00  0.00000000E+00
  0.00000000E+00  0.00000000E+00  0.00000000E+00
  0.00000000E+00  0.00000000E+00  0.00000000E+00
  0.00000000E+00  0.00000000E+00  0.00000000E+00
  0.00000000E+00  0.00000000E+00  0.00000000E+00
  0.00000000E+00  0.00000000E+00  0.00000000E+00
  0.00000000E+00  0.00000000E+00  0.00000000E+00
  0.00000000E+00  0.00000000E+00  0.00000000E+00
  0.00000000E+00  0.00000000E+00  0.00000000E+00
  0.00000000E+00  0.00000000E+00  0.00000000E+00
  0.00000000E+00  0.00000000E+00  0.00000000E+00
  0.00000000E+00  0.00000000E+00  0.00000000E+00
  0.00000000E+00  0.00000000E+00  0.00000000E+00
  0.00000000E+00  0.00000000E+00  0.00000000E+00
  0.00000000E+00  0.00000000E+00  0.00000000E+00
  0.00000000E+00  0.00000000E+00  0.00000000E+00
  0.00000000E+00  0.00000000E+00  0.00000000E+00
  0.00000000E+00  0.00000000E+00  0.00000000E+00
  0.00000000E+00  0.00000000E+00  0.00000000E+00
  0.00000000E+00  0.00000000E+00  0.00000000E+00
  0.00000000E+00  0.00000000E+00  0.00000000E+00
  0.00000000E+00  0.00000000E+00  0.00000000E+00
  0.00000000E+00  0.00000000E+00  0.00000000E+00
  0.00000000E+00  0.00000000E+00  0.00000000E+00
  0.00000000E+00  0.00000000E+00  0.00000000E+00
  0.00000000E+00  0.00000000E+00  0.00000000E+00
  0.00000000E+00  0.00000000E+00  0.00000000E+00
  0.00000000E+00  0.00000000E+00  0.00000000E+00
  0.00000000E+00  0.00000000E+00  0.00000000E+00
  0.00000000E+00  0.00000000E+00  0.00000000E+00
  0.00000000E+00  0.00000000E+00  0.00000000E+00
  0.00000000E+00  0.00000000E+00  0.00000000E+00
  0.00000000E+00  0.00000000E+00  0.00000000E+00
  0.00000000E+00  0.00000000E+00  0.00000000E+00
  0.00000000E+00  0.00000000E+00  0.00000000E+00
  0.00000000E+00  0.00000000E+00  0.00000000E+00
  0.00000000E+00  0.00000000E+00  0.00000000E+00
  0.00000000E+00  0.00000000E+00  0.00000000E+00
  0.00000000E+00  0.00000000E+00  0.00000000E+00
  0.00000000E+00  0.00000000E+00  0.00000000E+00
  0.00000000E+00  0.00000000E+00  0.00000000E+00
  0.00000000E+00  0.00000000E+00  0.00000000E+00
  0.00000000E+00  0.00000000E+00  0.00000000E+00
  0.00000000E+00  0.00000000E+00  0.00000000E+00
  0.00000000E+00  0.00000000E+00  0.00000000E+00
  0.00000000E+00  0.00000000E+00  0.00000000E+00
  0.00000000E+00  0.00000000E+00  0.00000000E+00
  0.00000000E+00  0.00000000E+00  0.00000000E+00
  0.00000000E+00  0.00000000E+00  0.00000000E+00
  0.00000000E+00  0.00000000E+00  0.00000000E+00
  0.00000000E+00  0.00000000E+00  0.00000000E+00
  0.00000000E+00  0.00000000E+00  0.00000000E+00
  0.00000000E+00  0.00000000E+00  0.00000000E+00
  0.00000000E+00  0.00000000E+00  0.00000000E+00
  0.00000000E+00  0.00000000E+00  0.00000000E+00
  0.00000000E+00  0.00000000E+00  0.00000000E+00
  0.00000000E+00  0.00000000E+00  0.00000000E+00
  0.00000000E+00  0.00000000E+00  0.00000000E+00
  0.00000000E+00  0.00000000E+00  0.00000000E+00
  0.00000000E+00  0.00000000E+00  0.00000000E+00
  0.00000000E+00  0.00000000E+00  0.00000000E+00
  0.00000000E+00  0.00000000E+00  0.00000000E+00
  0.00000000E+00  0.00000000E+00  0.00000000E+00
  0.00000000E+00  0.00000000E+00  0.00000000E+00
  0.00000000E+00  0.00000000E+00  0.00000000E+00
  0.00000000E+00  0.00000000E+00  0.00000000E+00
  0.00000000E+00  0.00000000E+00  0.00000000E+00
  0.00000000E+00  0.00000000E+00  0.00000000E+00
  0.00000000E+00  0.00000000E+00  0.00000000E+00
  0.00000000E+00  0.00000000E+00  0.00000000E+00
  0.00000000E+00  0.00000000E+00  0.00000000E+00
  0.00000000E+00  0.00000000E+00  0.00000000E+00
  0.00000000E+00  0.00000000E+00  0.00000000E+00
  0.00000000E+00  0.00000000E+00  0.00000000E+00
  0.00000000E+00  0.00000000E+00  0.00000000E+00
  0.00000000E+00  0.00000000E+00  0.00000000E+00
  0.00000000E+00  0.00000000E+00  0.00000000E+00
  0.00000000E+00  0.00000000E+00  0.00000000E+00
  0.00000000E+00  0.00000000E+00  0.00000000E+00
  0.00000000E+00  0.00000000E+00  0.00000000E+00
  0.00000000E+00  0.00000000E+00  0.00000000E+00
  0.00000000E+00  0.00000000E+00  0.00000000E+00
  0.00000000E+00  0.00000000E+00  0.00000000E+00
  0.00000000E+00  0.00000000E+00  0.00000000E+00
  0.00000000E+00  0.00000000E+00  0.00000000E+00
  0.00000000E+00  0.00000000E+00  0.00000000E+00
  0.00000000E+00  0.00000000E+00  0.00000000E+00
  0.00000000E+00  0.00000000E+00  0.00000000E+00
  0.00000000E+00  0.00000000E+00  0.00000000E+00
  0.00000000E+00  0.00000000E+00  0.00000000E+00
  0.00000000E+00  0.00000000E+00  0.00000000E+00
  0.00000000E+00  0.00000000E+00  0.00000000E+00
  0.00000000E+00  0.00000000E+00  0.00000000E+00
  0.00000000E+00  0.00000000E+00  0.00000000E+00
  0.00000000E+00  0.00000000E+00  0.00000000E+00
  0.00000000E+00  0.00000000E+00  0.00000000E+00
  0.00000000E+00  0.00000000E+00  0.00000000E+00
  0.00000000E+00  0.00000000E+00  0.00000000E+00
  0.00000000E+00  0.00000000E+00  0.00000000E+00
  0.00000000E+00  0.00000000E+00  0.00000000E+00
  0.00000000E+00  0.00000000E+00  0.00000000E+00
  0.00000000E+00  0.00000000E+00  0.00000000E+00
  0.00000000E+00  0.00000000E+00  0.00000000E+00
  0.00000000E+00  0.00000000E+00  0.00000000E+00
  0.00000000E+00  0.00000000E+00  0.00000000E+00
  0.00000000E+00  0.00000000E+00  0.00000000E+00
  0.00000000E+00  0.00000000E+00  0.00000000E+00
  0.00000000E+00  0.00000000E+00  0.00000000E+00
  0.00000000E+00  0.00000000E+00  0.00000000E+00
  0.00000000E+00  0.00000000E+00  0.00000000E+00
  0.00000000E+00  0.00000000E+00  0.00000000E+00
  0.00000000E+00  0.00000000E+00  0.00000000E+00
  0.00000000E+00  0.00000000E+00  0.00000000E+00
  0.00000000E+00  0.00000000E+00  0.00000000E+00
  0.00000000E+00  0.00000000E+00  0.00000000E+00
  0.00000000E+00  0.00000000E+00  0.00000000E+00
  0.00000000E+00  0.00000000E+00  0.00000000E+00
  0.00000000E+00  0.00000000E+00  0.00000000E+00
  0.00000000E+00  0.00000000E+00  0.00000000E+00
  0.00000000E+00  0.00000000E+00  0.00000000E+00
  0.00000000E+00  0.00000000E+00  0.00000000E+00
  0.00000000E+00  0.00000000E+00  0.00000000E+00
  0.00000000E+00  0.00000000E+00  0.00000000E+00
  0.00000000E+00  0.00000000E+00  0.00000000E+00
  0.00000000E+00  0.00000000E+00  0.00000000E+00
  0.00000000E+00  0.00000000E+00  0.00000000E+00
  0.00000000E+00  0.00000000E+00  0.00000000E+00
  0.00000000E+00  0.00000000E+00  0.00000000E+00
  0.00000000E+00  0.00000000E+00  0.00000000E+00
  0.00000000E+00  0.00000000E+00  0.00000000E+00
  0.00000000E+00  0.00000000E+00  0.00000000E+00
  0.00000000E+00  0.00000000E+00  0.00000000E+00
  0.00000000E+00  0.00000000E+00  0.00000000E+00
  0.00000000E+00  0.00000000E+00  0.00000000E+00
  0.00000000E+00  0.00000000E+00  0.00000000E+00
  0.00000000E+00  0.00000000E+00  0.00000000E+00
  0.00000000E+00  0.00000000E+00  0.00000000E+00
  0.00000000E+00  0.00000000E+00  0.00000000E+00
  0.00000000E+00  0.00000000E+00  0.00000000E+00
  0.00000000E+00  0.00000000E+00  0.00000000E+00
  0.00000000E+00  0.00000000E+00  0.00000000E+00
  0.00000000E+00  0.00000000E+00  0.00000000E+00
  0.00000000E+00  0.00000000E+00  0.00000000E+00
  0.00000000E+00  0.00000000E+00  0.00000000E+00
  0.00000000E+00  0.00000000E+00  0.00000000E+00
  0.00000000E+00  0.00000000E+00  0.00000000E+00
  0.00000000E+00  0.00000000E+00  0.00000000E+00
  0.00000000E+00  0.00000000E+00  0.00000000E+00
  0.00000000E+00  0.00000000E+00  0.00000000E+00
  0.00000000E+00  0.00000000E+00  0.00000000E+00
  0.00000000E+00  0.00000000E+00  0.00000000E+00
  0.00000000E+00  0.00000000E+00  0.00000000E+00
  0.00000000E+00  0.00000000E+00  0.00000000E+00
  0.00000000E+00  0.00000000E+00  0.00000000E+00
  0.00000000E+00  0.00000000E+00  0.00000000E+00
  0.00000000E+00  0.00000000E+00  0.00000000E+00
  0.00000000E+00  0.00000000E+00  0.00000000E+00
  0.00000000E+00  0.00000000E+00  0.00000000E+00
  0.00000000E+00  0.00000000E+00  0.00000000E+00
  0.00000000E+00  0.00000000E+00  0.00000000E+00
  0.00000000E+00  0.00000000E+00  0.00000000E+00
  0.00000000E+00  0.00000000E+00  0.00000000E+00
  0.00000000E+00  0.00000000E+00  0.00000000E+00
  0.00000000E+00  0.00000000E+00  0.00000000E+00
  0.00000000E+00  0.00000000E+00  0.00000000E+00
  0.00000000E+00  0.00000000E+00  0.00000000E+00
  0.00000000E+00  0.00000000E+00  0.00000000E+00
  0.00000000E+00  0.00000000E+00  0.00000000E+00
  0.00000000E+00  0.00000000E+00  0.00000000E+00
  0.00000000E+00  0.00000000E+00  0.00000000E+00
  0.00000000E+00  0.00000000E+00  0.00000000E+00
  0.00000000E+00  0.00000000E+00  0.00000000E+00
  0.00000000E+00  0.00000000E+00  0.00000000E+00
  0.00000000E+00  0.00000000E+00  0.00000000E+00
  0.00000000E+00  0.00000000E+00  0.00000000E+00
  0.00000000E+00  0.00000000E+00  0.00000000E+00
  0.00000000E+00  0.00000000E+00  0.00000000E+00
  0.00000000E+00  0.00000000E+00  0.00000000E+00
  0.00000000E+00  0.00000000E+00  0.00000000E+00
  0.00000000E+00  0.00000000E+00  0.00000000E+00
  0.00000000E+00  0.00000000E+00  0.00000000E+00
  0.00000000E+00  0.00000000E+00  0.00000000E+00
  0.00000000E+00  0.00000000E+00  0.00000000E+00
  0.00000000E+00  0.00000000E+00  0.00000000E+00
  0.00000000E+00  0.00000000E+00  0.00000000E+00
  0.00000000E+00  0.00000000E+00  0.00000000E+00
  0.00000000E+00  0.00000000E+00  0.00000000E+00
  0.00000000E+00  0.00000000E+00  0.00000000E+00
  0.00000000E+00  0.00000000E+00  0.00000000E+00
  0.00000000E+00  0.00000000E+00  0.00000000E+00
  0.00000000E+00  0.00000000E+00  0.00000000E+00
  0.00000000E+00  0.00000000E+00  0.00000000E+00
  0.00000000E+00  0.00000000E+00  0.00000000E+00
  0.00000000E+00  0.00000000E+00  0.00000000E+00
  0.00000000E+00  0.00000000E+00  0.00000000E+00
  0.00000000E+00  0.00000000E+00  0.00000000E+00
  0.00000000E+00  0.00000000E+00  0.00000000E+00
  0.00000000E+00  0.00000000E+00  0.00000000E+00
  0.00000000E+00  0.00000000E+00  0.00000000E+00
  0.00000000E+00  0.00000000E+00  0.00000000E+00
  0.00000000E+00  0.00000000E+00  0.00000000E+00
  0.00000000E+00  0.00000000E+00  0.00000000E+00
  0.00000000E+00  0.00000000E+00  0.00000000E+00
  0.00000000E+00  0.00000000E+00  0.00000000E+00
  0.00000000E+00  0.00000000E+00  0.00000000E+00
  0.00000000E+00  0.00000000E+00  0.00000000E+00
  0.00000000E+00  0.00000000E+00  0.00000000E+00
  0.00000000E+00  0.00000000E+00  0.00000000E+00
  0.00000000E+00  0.00000000E+00  0.00000000E+00
  0.00000000E+00  0.00000000E+00  0.00000000E+00
  0.00000000E+00  0.00000000E+00  0.00000000E+00
  0.00000000E+00  0.00000000E+00  0.00000000E+00
  0.00000000E+00  0.00000000E+00  0.00000000E+00
