Zn96 H16 Pt4 O96                        
    1.000000000000000     
    12.9159908295000001    0.0000000000000000    0.0000000000000000
    -6.4575307008999996   11.1858444632000005    0.0000000000000000
     0.0000000000000000    0.0000000000000000   41.8715667725000031
   Zn   O    H    Pt   O H
    96    96    16     4     1 2
Selective dynamics
Direct
  0.0833422689999992  0.1666569710000019  0.4138641059999983   F   F   F
  0.0833422689999992  0.4166569710000019  0.4138641059999983   F   F   F
  0.0833422689999992  0.6666569710000019  0.4138641059999983   F   F   F
  0.0833422689999992  0.9166569710000019  0.4138641059999983   F   F   F
  0.3333422540000015  0.1666569710000019  0.4138641059999983   F   F   F
  0.3333422540000015  0.4166569710000019  0.4138641059999983   F   F   F
  0.3333422540000015  0.6666569710000019  0.4138641059999983   F   F   F
  0.3333422540000015  0.9166569710000019  0.4138641059999983   F   F   F
  0.5833422540000015  0.1666569710000019  0.4138641059999983   F   F   F
  0.5833422540000015  0.4166569710000019  0.4138641059999983   F   F   F
  0.5833422540000015  0.6666569710000019  0.4138641059999983   F   F   F
  0.5833422540000015  0.9166569710000019  0.4138641059999983   F   F   F
  0.8333422540000015  0.1666569710000019  0.4138641059999983   F   F   F
  0.8333422540000015  0.4166569710000019  0.4138641059999983   F   F   F
  0.8333422540000015  0.6666569710000019  0.4138641059999983   F   F   F
  0.8333422540000015  0.9166569710000019  0.4138641059999983   F   F   F
  0.1666568959999992  0.0833424400000027  0.3513641059999983   F   F   F
  0.1666568959999992  0.3333424329999986  0.3513641059999983   F   F   F
  0.1666568959999992  0.5833424329999986  0.3513641059999983   F   F   F
  0.1666568959999992  0.8333424329999986  0.3513641059999983   F   F   F
  0.4166569109999969  0.0833424400000027  0.3513641059999983   F   F   F
  0.4166569109999969  0.3333424329999986  0.3513641059999983   F   F   F
  0.4166569109999969  0.5833424329999986  0.3513641059999983   F   F   F
  0.4166569109999969  0.8333424329999986  0.3513641059999983   F   F   F
  0.6666569109999969  0.0833424400000027  0.3513641059999983   F   F   F
  0.6666569109999969  0.3333424329999986  0.3513641059999983   F   F   F
  0.6666569109999969  0.5833424329999986  0.3513641059999983   F   F   F
  0.6666569109999969  0.8333424329999986  0.3513641059999983   F   F   F
  0.9166569109999969  0.0833424400000027  0.3513641059999983   F   F   F
  0.9166569109999969  0.3333424329999986  0.3513641059999983   F   F   F
  0.9166569109999969  0.5833424329999986  0.3513641059999983   F   F   F
  0.9166569109999969  0.8333424329999986  0.3513641059999983   F   F   F
  0.0833421419999993  0.1666568819999981  0.5388641360000008   F   F   F
  0.0833421419999993  0.4166568819999981  0.5388641360000008   F   F   F
  0.0833421419999993  0.6666568520000027  0.5388641360000008   F   F   F
  0.0833421419999993  0.9166568520000027  0.5388641360000008   F   F   F
  0.3333421350000023  0.1666568819999981  0.5388641360000008   F   F   F
  0.3333421350000023  0.4166568819999981  0.5388641360000008   F   F   F
  0.3333421350000023  0.6666568520000027  0.5388641360000008   F   F   F
  0.3333421350000023  0.9166568520000027  0.5388641360000008   F   F   F
  0.5833421350000023  0.1666568819999981  0.5388641360000008   F   F   F
  0.5833421350000023  0.4166568819999981  0.5388641360000008   F   F   F
  0.5833421350000023  0.6666568520000027  0.5388641360000008   F   F   F
  0.5833421350000023  0.9166568520000027  0.5388641360000008   F   F   F
  0.8333421350000023  0.1666568819999981  0.5388641360000008   F   F   F
  0.8333421350000023  0.4166568819999981  0.5388641360000008   F   F   F
  0.8333421350000023  0.6666568520000027  0.5388641360000008   F   F   F
  0.8333421350000023  0.9166568520000027  0.5388641360000008   F   F   F
  0.1666567770000000  0.0833423509999989  0.4763641059999983   F   F   F
  0.1666567770000000  0.3333423440000018  0.4763641059999983   F   F   F
  0.1666567770000000  0.5833423730000007  0.4763641059999983   F   F   F
  0.1666567770000000  0.8333423730000007  0.4763641059999983   F   F   F
  0.4166567919999977  0.0833423509999989  0.4763641059999983   F   F   F
  0.4166567919999977  0.3333423440000018  0.4763641059999983   F   F   F
  0.4166567919999977  0.5833423730000007  0.4763641059999983   F   F   F
  0.4166567919999977  0.8333423730000007  0.4763641059999983   F   F   F
  0.6666567919999977  0.0833423509999989  0.4763641059999983   F   F   F
  0.6666567919999977  0.3333423440000018  0.4763641059999983   F   F   F
  0.6666567919999977  0.5833423730000007  0.4763641059999983   F   F   F
  0.6666567919999977  0.8333423730000007  0.4763641059999983   F   F   F
  0.9166567919999977  0.0833423509999989  0.4763641059999983   F   F   F
  0.9166567919999977  0.3333423440000018  0.4763641059999983   F   F   F
  0.9166567919999977  0.5833423730000007  0.4763641059999983   F   F   F
  0.9166567919999977  0.8333423730000007  0.4763641059999983   F   F   F
  0.0863704878984493  0.1680561739013910  0.6606917175137710   T   T   T
  0.0841885458779998  0.4187980337872190  0.6610995980184455   T   T   T
  0.0862855956627868  0.6638379552373195  0.6596636622566834   T   T   T
  0.0841082859040796  0.9196827467784559  0.6593466638074261   T   T   T
  0.3567049245271861  0.1791478244473552  0.6712824014514638   T   T   T
  0.3558528695275243  0.4320895336392709  0.6704561210445448   T   T   T
  0.3596061946809002  0.6705924273682626  0.6724296045385287   T   T   T
  0.3420509760093680  0.9168824422191122  0.6569516234708033   T   T   T
  0.5741137044858107  0.1739499310801520  0.6716484644585279   T   T   T
  0.5736634440532455  0.4041898830629762  0.6729132057626046   T   T   T
  0.5886724065102129  0.6625186818379731  0.6640351785316554   T   T   T
  0.5839976579883839  0.8996698705850079  0.6722125784486863   T   T   T
  0.8262689551501410  0.1677407356719769  0.6613855838403495   T   T   T
  0.8169843866850428  0.4366184236273369  0.6723207642437288   T   T   T
  0.8178333790099046  0.6649249397700956  0.6700021067821069   T   T   T
  0.8220224090481594  0.9008653630458738  0.6725472579720986   T   T   T
  0.1739573715823539  0.0883505232774269  0.6038656927567061   T   T   T
  0.1724322633841524  0.3365856410758497  0.6041965755750027   T   T   T
  0.1734155680777860  0.5852930200559925  0.6039951908050085   T   T   T
  0.1679928254198870  0.8338999509118992  0.6007682265897998   T   T   T
  0.4205995812754537  0.0876877668320191  0.6008208721333190   T   T   T
  0.4204077478764958  0.3368579479470881  0.6031288332393103   T   T   T
  0.4196112834999326  0.5834460556777614  0.6007131347769032   T   T   T
  0.4217370637830555  0.8314301276534195  0.6026383982893933   T   T   T
  0.6608753848242941  0.0811963238412972  0.6068801093419367   T   T   T
  0.6678453514833294  0.3347375990891379  0.6034337935482910   T   T   T
  0.6664065741804563  0.5804549795130995  0.6012132744793135   T   T   T
  0.6684778057973730  0.8347894141100269  0.6012978739829222   T   T   T
  0.9141437727209762  0.0808137097589068  0.6045725455475051   T   T   T
  0.9135530436389558  0.3358991668753504  0.6048314949332365   T   T   T
  0.9138183316727932  0.5834977133475476  0.6035533224419325   T   T   T
  0.9136368802296388  0.8319892707071332  0.6031118034454153   T   T   T
  0.0833223240000009  0.1666771619999992  0.3361358940000017   F   F   F
  0.0833223240000009  0.4166771769999968  0.3361358940000017   F   F   F
  0.0833223240000009  0.6666771769999968  0.3361358940000017   F   F   F
  0.0833223240000009  0.9166771769999968  0.3361358940000017   F   F   F
  0.3333223160000003  0.1666771619999992  0.3361358940000017   F   F   F
  0.3333223160000003  0.4166771769999968  0.3361358940000017   F   F   F
  0.3333223160000003  0.6666771769999968  0.3361358940000017   F   F   F
  0.3333223160000003  0.9166771769999968  0.3361358940000017   F   F   F
  0.5833223460000028  0.1666771619999992  0.3361358940000017   F   F   F
  0.5833223460000028  0.4166771769999968  0.3361358940000017   F   F   F
  0.5833223460000028  0.6666771769999968  0.3361358940000017   F   F   F
  0.5833223460000028  0.9166771769999968  0.3361358940000017   F   F   F
  0.8333223460000028  0.1666771619999992  0.3361358940000017   F   F   F
  0.8333223460000028  0.4166771769999968  0.3361358940000017   F   F   F
  0.8333223460000028  0.6666771769999968  0.3361358940000017   F   F   F
  0.8333223460000028  0.9166771769999968  0.3361358940000017   F   F   F
  0.1666769979999998  0.0833223759999981  0.3986358940000017   F   F   F
  0.1666769979999998  0.3333223759999981  0.3986358940000017   F   F   F
  0.1666769979999998  0.5833224060000006  0.3986358940000017   F   F   F
  0.1666769979999998  0.8333224060000006  0.3986358940000017   F   F   F
  0.4166769979999998  0.0833223759999981  0.3986358940000017   F   F   F
  0.4166769979999998  0.3333223759999981  0.3986358940000017   F   F   F
  0.4166769979999998  0.5833224060000006  0.3986358940000017   F   F   F
  0.4166769979999998  0.8333224060000006  0.3986358940000017   F   F   F
  0.6666769979999998  0.0833223759999981  0.3986358940000017   F   F   F
  0.6666769979999998  0.3333223759999981  0.3986358940000017   F   F   F
  0.6666769979999998  0.5833224060000006  0.3986358940000017   F   F   F
  0.6666769979999998  0.8333224060000006  0.3986358940000017   F   F   F
  0.9166769979999998  0.0833223759999981  0.3986358940000017   F   F   F
  0.9166769979999998  0.3333223759999981  0.3986358940000017   F   F   F
  0.9166769979999998  0.5833224060000006  0.3986358940000017   F   F   F
  0.9166769979999998  0.8333224060000006  0.3986358940000017   F   F   F
  0.0833221970000011  0.1666770730000025  0.4611358940000017   F   F   F
  0.0833221970000011  0.4166770579999977  0.4611358940000017   F   F   F
  0.0833221970000011  0.6666770579999977  0.4611358940000017   F   F   F
  0.0833221970000011  0.9166770579999977  0.4611358940000017   F   F   F
  0.3333221970000011  0.1666770730000025  0.4611358940000017   F   F   F
  0.3333221970000011  0.4166770579999977  0.4611358940000017   F   F   F
  0.3333221970000011  0.6666770579999977  0.4611358940000017   F   F   F
  0.3333221970000011  0.9166770579999977  0.4611358940000017   F   F   F
  0.5833221669999986  0.1666770730000025  0.4611358940000017   F   F   F
  0.5833221669999986  0.4166770579999977  0.4611358940000017   F   F   F
  0.5833221669999986  0.6666770579999977  0.4611358940000017   F   F   F
  0.5833221669999986  0.9166770579999977  0.4611358940000017   F   F   F
  0.8333221669999986  0.1666770730000025  0.4611358940000017   F   F   F
  0.8333221669999986  0.4166770579999977  0.4611358940000017   F   F   F
  0.8333221669999986  0.6666770579999977  0.4611358940000017   F   F   F
  0.8333221669999986  0.9166770579999977  0.4611358940000017   F   F   F
  0.1666768790000006  0.0833222870000014  0.5236359239999970   F   F   F
  0.1666768790000006  0.3333222870000014  0.5236359239999970   F   F   F
  0.1666768790000006  0.5833222870000014  0.5236359239999970   F   F   F
  0.1666768790000006  0.8333222870000014  0.5236359239999970   F   F   F
  0.4166768790000006  0.0833222870000014  0.5236359239999970   F   F   F
  0.4166768790000006  0.3333222870000014  0.5236359239999970   F   F   F
  0.4166768790000006  0.5833222870000014  0.5236359239999970   F   F   F
  0.4166768790000006  0.8333222870000014  0.5236359239999970   F   F   F
  0.6666768790000006  0.0833222870000014  0.5236359239999970   F   F   F
  0.6666768790000006  0.3333222870000014  0.5236359239999970   F   F   F
  0.6666768790000006  0.5833222870000014  0.5236359239999970   F   F   F
  0.6666768790000006  0.8333222870000014  0.5236359239999970   F   F   F
  0.9166768790000006  0.0833222870000014  0.5236359239999970   F   F   F
  0.9166768790000006  0.3333222870000014  0.5236359239999970   F   F   F
  0.9166768790000006  0.5833222870000014  0.5236359239999970   F   F   F
  0.9166768790000006  0.8333222870000014  0.5236359239999970   F   F   F
  0.0835141608800427  0.1671283737633900  0.5892468143565708   T   T   T
  0.0829358521723478  0.4164171419725804  0.5892218286614153   T   T   T
  0.0847023851772306  0.6647479724494261  0.5881671420207510   T   T   T
  0.0853882141387388  0.9201983352697809  0.5880657929906477   T   T   T
  0.3345520869468501  0.1687824500639437  0.5862234696681554   T   T   T
  0.3326388969989438  0.4155417521902365  0.5859676528777342   T   T   T
  0.3339510872293801  0.6671048062546703  0.5861290228082012   T   T   T
  0.3353656499816893  0.9152882029751268  0.5869469565405865   T   T   T
  0.5877785633275323  0.1674907018128238  0.5866395378341309   T   T   T
  0.5835182105176457  0.4134909024621010  0.5855019367493384   T   T   T
  0.5862912173367434  0.6684378192461580  0.5854908139969552   T   T   T
  0.5862154160240323  0.9212765351099321  0.5866236793125807   T   T   T
  0.8312519663991651  0.1668034082040393  0.5899685627177575   T   T   T
  0.8358820364236550  0.4192209585141313  0.5867450744925833   T   T   T
  0.8361954366942612  0.6686534573911516  0.5860807419861445   T   T   T
  0.8373168781618290  0.9198891257448949  0.5863236286523943   T   T   T
  0.1807528495431825  0.0906691701905658  0.6557703308395588   T   T   T
  0.1756102382205711  0.3393973361230209  0.6550938240383530   T   T   T
  0.1828770075002666  0.5904404820450040  0.6556533024466447   T   T   T
  0.1696744802625503  0.8344011415680157  0.6524644891778806   T   T   T
  0.4140821142205411  0.0797304592176857  0.6476704385612919   T   T   T
  0.4116090441571600  0.3339462630415326  0.6491067956131786   T   T   T
  0.4181849340217099  0.5843046115718522  0.6466162663943393   T   T   T
  0.4207979816641938  0.8293707504886640  0.6506236911098071   T   T   T
  0.6541108810254173  0.0770047850703932  0.6580691992840002   T   T   T
  0.6725431163538502  0.3317503549845071  0.6496373391856309   T   T   T
  0.6628247933179168  0.5711394787183792  0.6466881838438994   T   T   T
  0.6714942406111675  0.8371123647603511  0.6473504098664549   T   T   T
  0.9138090939525583  0.0799061316233818  0.6558799993977615   T   T   T
  0.9130529989272915  0.3417003550927262  0.6566271629923577   T   T   T
  0.9203852604793639  0.5936379711931039  0.6518222057373961   T   T   T
  0.9180134656358945  0.8335315634507765  0.6509370856071826   T   T   T
  0.0833225029999980  0.1666775050000027  0.3114693160000002   F   F   F
  0.0833225029999980  0.4166775050000027  0.3114693160000002   F   F   F
  0.0833225029999980  0.6666774750000002  0.3114693160000002   F   F   F
  0.0833225029999980  0.9166774750000002  0.3114693160000002   F   F   F
  0.3333224949999973  0.1666775050000027  0.3114693160000002   F   F   F
  0.3333224949999973  0.4166775050000027  0.3114693160000002   F   F   F
  0.3333224949999973  0.6666774750000002  0.3114693160000002   F   F   F
  0.3333224949999973  0.9166774750000002  0.3114693160000002   F   F   F
  0.5833225249999998  0.1666775050000027  0.3114693160000002   F   F   F
  0.5833225249999998  0.4166775050000027  0.3114693160000002   F   F   F
  0.5833225249999998  0.6666774750000002  0.3114693160000002   F   F   F
  0.5833225249999998  0.9166774750000002  0.3114693160000002   F   F   F
  0.8333225249999998  0.1666775050000027  0.3114693160000002   F   F   F
  0.8333225249999998  0.4166775050000027  0.3114693160000002   F   F   F
  0.8333225249999998  0.6666774750000002  0.3114693160000002   F   F   F
  0.8333225249999998  0.9166774750000002  0.3114693160000002   F   F   F
  0.5065691051560250  0.5289345546295579  0.7155160439011325   T   T   T
  0.7202737007432347  0.5268233141437548  0.7175150900026637   T   T   T
  0.5194026546219348  0.7380630350221438  0.7168051574492651   T   T   T
  0.7266082799137408  0.7384435682530679  0.7144086316886984   T   T   T
  0.4978195355306099  0.2406656144996262  0.6987977355380792   T   T   T
  0.4779233400000000  0.5289300000000000  0.7566834500000000   T   T   T
  0.5352166600000000  0.5289300000000000  0.7566834500000000   T   T   T
  
  
