Zn96 H18 O96
1.0
  12.9159907272337371    0.0000000000000000    0.0000000000000008
  -6.4575301003323453   11.1858448318051593    0.0000000000000008
   0.0000000000000000    0.0000000000000000   41.8715658066988325
Zn O H O H
96 95 16 1 2
Selective dynamics
direct
   0.0833422700331283    0.1666569644086167    0.4138641089449635 F F F Zn
   0.0833422700331283    0.4166569644086238    0.4138641089449635 F F F Zn
   0.0833422700331283    0.6666569644086167    0.4138641089449635 F F F Zn
   0.0833422700331283    0.9166569644086167    0.4138641089449635 F F F Zn
   0.3333422700331282    0.1666569644086167    0.4138641089449635 F F F Zn
   0.3333422700331282    0.4166569644086238    0.4138641089449635 F F F Zn
   0.3333422700331283    0.6666569644086167    0.4138641089449635 F F F Zn
   0.3333422700331282    0.9166569644086167    0.4138641089449635 F F F Zn
   0.5833422700331283    0.1666569644086167    0.4138641089449635 F F F Zn
   0.5833422700331283    0.4166569644086238    0.4138641089449635 F F F Zn
   0.5833422700331283    0.6666569644086167    0.4138641089449635 F F F Zn
   0.5833422700331283    0.9166569644086167    0.4138641089449634 F F F Zn
   0.8333422700331284    0.1666569644086167    0.4138641089449635 F F F Zn
   0.8333422700331283    0.4166569644086238    0.4138641089449635 F F F Zn
   0.8333422700331283    0.6666569644086167    0.4138641089449634 F F F Zn
   0.8333422700331283    0.9166569644086167    0.4138641089449634 F F F Zn
   0.1666568958537624    0.0833424376166505    0.3513640990662594 F F F Zn
   0.1666568958537624    0.3333424376166505    0.3513640990662594 F F F Zn
   0.1666568958537624    0.5833424376166505    0.3513640990662594 F F F Zn
   0.1666568958537624    0.8333424376166506    0.3513640990662594 F F F Zn
   0.4166568958537624    0.0833424376166505    0.3513640990662594 F F F Zn
   0.4166568958537624    0.3333424376166505    0.3513640990662594 F F F Zn
   0.4166568958537624    0.5833424376166505    0.3513640990662594 F F F Zn
   0.4166568958537625    0.8333424376166506    0.3513640990662595 F F F Zn
   0.6666568958537624    0.0833424376166505    0.3513640990662594 F F F Zn
   0.6666568958537624    0.3333424376166505    0.3513640990662594 F F F Zn
   0.6666568958537624    0.5833424376166505    0.3513640990662595 F F F Zn
   0.6666568958537624    0.8333424376166506    0.3513640990662594 F F F Zn
   0.9166568958537623    0.0833424376166505    0.3513640990662594 F F F Zn
   0.9166568958537624    0.3333424376166505    0.3513640990662595 F F F Zn
   0.9166568958537623    0.5833424376166505    0.3513640990662594 F F F Zn
   0.9166568958537623    0.8333424376166506    0.3513640990662594 F F F Zn
   0.0833421456183316    0.1666568756581057    0.5388641089449635 F F F Zn
   0.0833421456183316    0.4166568756581057    0.5388641089449635 F F F Zn
   0.0833421456183316    0.6666568756581057    0.5388641089449635 F F F Zn
   0.0833421456183316    0.9166568756581057    0.5388641089449635 F F F Zn
   0.3333421456183316    0.1666568756581057    0.5388641089449635 F F F Zn
   0.3333421456183316    0.4166568756581057    0.5388641089449635 F F F Zn
   0.3333421456183316    0.6666568756581057    0.5388641089449635 F F F Zn
   0.3333421456183316    0.9166568756581057    0.5388641089449635 F F F Zn
   0.5833421456183316    0.1666568756581057    0.5388641089449635 F F F Zn
   0.5833421456183316    0.4166568756581057    0.5388641089449635 F F F Zn
   0.5833421456183316    0.6666568756581057    0.5388641089449635 F F F Zn
   0.5833421456183316    0.9166568756581057    0.5388641089449635 F F F Zn
   0.8333421456183316    0.1666568756581057    0.5388641089449635 F F F Zn
   0.8333421456183316    0.4166568756581057    0.5388641089449635 F F F Zn
   0.8333421456183316    0.6666568756581057    0.5388641089449635 F F F Zn
   0.8333421456183316    0.9166568756581057    0.5388641089449635 F F F Zn
   0.1666567714389657    0.0833423488661396    0.4763640990662595 F F F Zn
   0.1666567714389657    0.3333423488661396    0.4763640990662595 F F F Zn
   0.1666567714389657    0.5833423488661396    0.4763640990662595 F F F Zn
   0.1666567714389657    0.8333423488661396    0.4763640990662595 F F F Zn
   0.4166567714389656    0.0833423488661396    0.4763640990662595 F F F Zn
   0.4166567714389657    0.3333423488661396    0.4763640990662595 F F F Zn
   0.4166567714389656    0.5833423488661396    0.4763640990662595 F F F Zn
   0.4166567714389657    0.8333423488661396    0.4763640990662595 F F F Zn
   0.6666567714389657    0.0833423488661396    0.4763640990662595 F F F Zn
   0.6666567714389657    0.3333423488661396    0.4763640990662595 F F F Zn
   0.6666567714389657    0.5833423488661396    0.4763640990662595 F F F Zn
   0.6666567714389657    0.8333423488661396    0.4763640990662594 F F F Zn
   0.9166567714389657    0.0833423488661396    0.4763640990662595 F F F Zn
   0.9166567714389656    0.3333423488661396    0.4763640990662595 F F F Zn
   0.9166567714389656    0.5833423488661396    0.4763640990662594 F F F Zn
   0.9166567714389657    0.8333423488661396    0.4763640990662594 F F F Zn
   0.0879275761463703    0.1773142776856389    0.6632246929883721 T T T Zn
   0.0868685833909950    0.4184371289977875    0.6694595424155311 T T T Zn
   0.0879360508925728    0.6606068994500589    0.6632191830019920 T T T Zn
   0.0833304613387469    0.9166720073263761    0.6597881741389173 T T T Zn
   0.3393922788972077    0.1773194137359368    0.6632242121082684 T T T Zn
   0.3521410472848955    0.4543494094833562    0.6616354147416388 T T T Zn
   0.3521244286541644    0.6478685449633588    0.6617608000224777 T T T Zn
   0.3393913397693495    0.9120645861439628    0.6632194243613300 T T T Zn
   0.5819922639254428    0.1659875579652308    0.6645974532915204 T T T Zn
   0.5815956621751397    0.4184029850867362    0.6694517420242008 T T T Zn
   0.5456476749384720    0.6478573894821551    0.6616359164564969 T T T Zn
   0.5815546474986064    0.9131260266991035    0.6694588310047678 T T T Zn
   0.8340020479278749    0.1659973535216608    0.6645881233728161 T T T Zn
   0.8340097857300321    0.4180058693969002    0.6645978745968222 T T T Zn
   0.8226770037855005    0.6606061357561899    0.6632247180554032 T T T Zn
   0.8226819075326048    0.9120679061624060    0.6632244853175635 T T T Zn
   0.1680448822363019    0.0860686726853004    0.6021796610063959 T T T Zn
   0.1692092666982319    0.3372300103486694    0.6029669374259968 T T T Zn
   0.1692475175686283    0.5819707043849931    0.6029731771204183 T T T Zn
   0.1680491919225986    0.8319503980372644    0.6021775274771742 T T T Zn
   0.4173009927238240    0.0836404529147785    0.6023485671345270 T T T Zn
   0.4180302187669938    0.3372473327556946    0.6029762850266067 T T T Zn
   0.4166977402399539    0.5832991911311893    0.6047897133357480 T T T Zn
   0.4180270670701205    0.8307503799313309    0.6029716913200929 T T T Zn
   0.6660178215561318    0.0820179225433506    0.6030727616789164 T T T Zn
   0.6660234080033760    0.3339742840798934    0.6030683062339223 T T T Zn
   0.6627508832793083    0.5819683694541027    0.6029763508395406 T T T Zn
   0.6627661940140470    0.8307877084797752    0.6029670955363216 T T T Zn
   0.9163572445733905    0.0836410052138774    0.6023502847406306 T T T Zn
   0.9179804060786623    0.3339796473904144    0.6030727254213062 T T T Zn
   0.9163590011745697    0.5826981012654073    0.6023483510843235 T T T Zn
   0.9139287013134307    0.8319533143087341    0.6021786599387795 T T T Zn
   0.0833223251846178    0.1666771555741846    0.3361358956743672 F F F O
   0.0833223251846178    0.4166771555741847    0.3361358956743672 F F F O
   0.0833223251846178    0.6666771555741775    0.3361358956743672 F F F O
   0.0833223251846179    0.9166771555741776    0.3361358956743672 F F F O
   0.3333223251846178    0.1666771555741846    0.3361358956743672 F F F O
   0.3333223251846178    0.4166771555741847    0.3361358956743672 F F F O
   0.3333223251846178    0.6666771555741775    0.3361358956743672 F F F O
   0.3333223251846179    0.9166771555741776    0.3361358956743672 F F F O
   0.5833223251846178    0.1666771555741846    0.3361358956743672 F F F O
   0.5833223251846178    0.4166771555741847    0.3361358956743672 F F F O
   0.5833223251846178    0.6666771555741775    0.3361358956743672 F F F O
   0.5833223251846178    0.9166771555741776    0.3361358956743672 F F F O
   0.8333223251846177    0.1666771555741846    0.3361358956743672 F F F O
   0.8333223251846177    0.4166771555741847    0.3361358956743672 F F F O
   0.8333223251846178    0.6666771555741775    0.3361358956743672 F F F O
   0.8333223251846178    0.9166771555741776    0.3361358956743672 F F F O
   0.1666770009509335    0.0833223773943388    0.3986358963144099 F F F O
   0.1666770009509335    0.3333223773943388    0.3986358963144099 F F F O
   0.1666770009509335    0.5833223773943388    0.3986358963144099 F F F O
   0.1666770009509335    0.8333223773943389    0.3986358963144099 F F F O
   0.4166770009509335    0.0833223773943388    0.3986358963144099 F F F O
   0.4166770009509335    0.3333223773943388    0.3986358963144099 F F F O
   0.4166770009509335    0.5833223773943388    0.3986358963144099 F F F O
   0.4166770009509336    0.8333223773943389    0.3986358963144099 F F F O
   0.6666770009509335    0.0833223773943388    0.3986358963144099 F F F O
   0.6666770009509335    0.3333223773943388    0.3986358963144099 F F F O
   0.6666770009509335    0.5833223773943388    0.3986358963144099 F F F O
   0.6666770009509335    0.8333223773943389    0.3986358963144098 F F F O
   0.9166770009509333    0.0833223773943388    0.3986358963144099 F F F O
   0.9166770009509334    0.3333223773943388    0.3986358963144099 F F F O
   0.9166770009509333    0.5833223773943388    0.3986358963144098 F F F O
   0.9166770009509335    0.8333223773943389    0.3986358963144098 F F F O
   0.0833222007698211    0.1666770668236666    0.4611358956743672 F F F O
   0.0833222007698211    0.4166770668236666    0.4611358956743672 F F F O
   0.0833222007698211    0.6666770668236666    0.4611358956743672 F F F O
   0.0833222007698211    0.9166770668236666    0.4611358956743672 F F F O
   0.3333222007698211    0.1666770668236666    0.4611358956743672 F F F O
   0.3333222007698211    0.4166770668236666    0.4611358956743672 F F F O
   0.3333222007698211    0.6666770668236666    0.4611358956743672 F F F O
   0.3333222007698211    0.9166770668236666    0.4611358956743672 F F F O
   0.5833222007698211    0.1666770668236666    0.4611358956743672 F F F O
   0.5833222007698211    0.4166770668236666    0.4611358956743672 F F F O
   0.5833222007698211    0.6666770668236666    0.4611358956743672 F F F O
   0.5833222007698211    0.9166770668236666    0.4611358956743671 F F F O
   0.8333222007698210    0.1666770668236666    0.4611358956743672 F F F O
   0.8333222007698211    0.4166770668236666    0.4611358956743672 F F F O
   0.8333222007698209    0.6666770668236666    0.4611358956743671 F F F O
   0.8333222007698210    0.9166770668236666    0.4611358956743671 F F F O
   0.1666768765361368    0.0833222886438278    0.5236358963144099 F F F O
   0.1666768765361368    0.3333222886438278    0.5236358963144099 F F F O
   0.1666768765361368    0.5833222886438278    0.5236358963144099 F F F O
   0.1666768765361367    0.8333222886438278    0.5236358963144099 F F F O
   0.4166768765361368    0.0833222886438278    0.5236358963144099 F F F O
   0.4166768765361367    0.3333222886438278    0.5236358963144099 F F F O
   0.4166768765361368    0.5833222886438278    0.5236358963144099 F F F O
   0.4166768765361367    0.8333222886438278    0.5236358963144099 F F F O
   0.6666768765361367    0.0833222886438278    0.5236358963144099 F F F O
   0.6666768765361368    0.3333222886438278    0.5236358963144099 F F F O
   0.6666768765361368    0.5833222886438278    0.5236358963144099 F F F O
   0.6666768765361368    0.8333222886438278    0.5236358963144099 F F F O
   0.9166768765361367    0.0833222886438278    0.5236358963144099 F F F O
   0.9166768765361367    0.3333222886438278    0.5236358963144099 F F F O
   0.9166768765361367    0.5833222886438278    0.5236358963144099 F F F O
   0.9166768765361367    0.8333222886438278    0.5236358963144099 F F F O
   0.0837649305120181    0.1682400902011949    0.5876554616159382 T T T O
   0.0826765515287420    0.4163362907542805    0.5870071353144439 T T T O
   0.0837777465377556    0.6655025278997613    0.5876570122398520 T T T O
   0.0833386421531230    0.9166599984169679    0.5883163390455408 T T T O
   0.3345015477887613    0.1682591730812817    0.5876573128171358 T T T O
   0.3337255477204478    0.4174434956778654    0.5864709557873340 T T T O
   0.3337676619298620    0.6662299017893929    0.5864758583812204 T T T O
   0.3344957303012350    0.9162239696275094    0.5876561892705254 T T T O
   0.5839187691787018    0.1669489187608661    0.5874406554774794 T T T O
   0.5836686164296481    0.4163301644320470    0.5870103187102345 T T T O
   0.5825536929708264    0.6662714587440632    0.5864711782725323 T T T O
   0.5836606120030083    0.9173210484742215    0.5870068489368876 T T T O
   0.8330438763185839    0.1669540559462632    0.5874415947422591 T T T O
   0.8330506568698723    0.4160801714344231    0.5874406429287120 T T T O
   0.8317394995909381    0.6654961889688096    0.5876571288346639 T T T O
   0.8317575949507727    0.9162328104570817    0.5876556073457806 T T T O
   0.1683942945260313    0.0867831346446692    0.6534194774192770 T T T O
   0.1784405236455413    0.3440713066406644    0.6522419285750871 T T T O
   0.1784512417614010    0.5843743523144340    0.6522433686040330 T T T O
   0.1684073260888255    0.8315972811194001    0.6534180620437837 T T T O
   0.4127970502604441    0.0813884446628563    0.6526002879748845 T T T O
   0.4156298556070652    0.3440855246995369    0.6522613469129865 T T T O
   0.4156225648199623    0.8215390653876895    0.6522415444839851 T T T O
   0.6653603430383085    0.0807110523986196    0.6526052462875570 T T T O
   0.6653781589491388    0.3346197942476010    0.6525957725599555 T T T O
   0.6559140480410477    0.5843699517182017    0.6522612003363903 T T T O
   0.6559262988755349    0.8215583287647164    0.6522420324153018 T T T O
   0.9186044945683917    0.0813927383417479    0.6526021590431128 T T T O
   0.9192858473073073    0.3346386110729540    0.6526052087844363 T T T O
   0.9186054210088626    0.5871999593155266    0.6525999432638230 T T T O
   0.9132042942798293    0.8315982823919938    0.6534173564236454 T T T O
   0.0833225000000013    0.1666774999999987    0.3114693200000005 F F F H
   0.0833225000000013    0.4166774999999988    0.3114693200000005 F F F H
   0.0833225000000013    0.6666774999999987    0.3114693200000005 F F F H
   0.0833225000000012    0.9166774999999987    0.3114693200000005 F F F H
   0.3333225000000013    0.1666774999999987    0.3114693200000005 F F F H
   0.3333225000000013    0.4166774999999988    0.3114693200000005 F F F H
   0.3333225000000013    0.6666774999999987    0.3114693200000005 F F F H
   0.3333225000000012    0.9166774999999987    0.3114693200000005 F F F H
   0.5833225000000013    0.1666774999999987    0.3114693200000005 F F F H
   0.5833225000000013    0.4166774999999988    0.3114693200000005 F F F H
   0.5833225000000013    0.6666774999999987    0.3114693200000005 F F F H
   0.5833225000000013    0.9166774999999987    0.3114693200000005 F F F H
   0.8333225000000013    0.1666774999999987    0.3114693200000005 F F F H
   0.8333225000000013    0.4166774999999988    0.3114693200000005 F F F H
   0.8333225000000013    0.6666774999999987    0.3114693200000005 F F F H
   0.8333225000000013    0.9166774999999987    0.3114693200000005 F F F H
   0.4521410472848955    0.6043494094833562    0.7094005260162697 T T T O
   0.4167598233784233    0.6435551623720634    0.7212997623663552 T T T H
   0.5356592691591090    0.6460501096417491    0.7158214657510543 T T T H
