Zn96 H18 O97                            
    1.000000000000000     
    12.9159907272337371    0.0000000000000000    0.0000000000000008
    -6.4575301003323453   11.1858448318051593    0.0000000000000008
     0.0000000000000000    0.0000000000000000   41.8715658066988325
   Zn   O    H    O    H 
    96    96    16     2     2
Selective dynamics
Direct
  0.0833422700331283  0.1666569644086167  0.4138641089449635   F   F   F
  0.0833422700331283  0.4166569644086238  0.4138641089449635   F   F   F
  0.0833422700331283  0.6666569644086167  0.4138641089449635   F   F   F
  0.0833422700331283  0.9166569644086167  0.4138641089449635   F   F   F
  0.3333422700331283  0.1666569644086167  0.4138641089449635   F   F   F
  0.3333422700331283  0.4166569644086238  0.4138641089449635   F   F   F
  0.3333422700331283  0.6666569644086167  0.4138641089449635   F   F   F
  0.3333422700331283  0.9166569644086167  0.4138641089449635   F   F   F
  0.5833422700331283  0.1666569644086167  0.4138641089449635   F   F   F
  0.5833422700331283  0.4166569644086238  0.4138641089449635   F   F   F
  0.5833422700331283  0.6666569644086167  0.4138641089449635   F   F   F
  0.5833422700331283  0.9166569644086167  0.4138641089449635   F   F   F
  0.8333422700331283  0.1666569644086167  0.4138641089449635   F   F   F
  0.8333422700331283  0.4166569644086238  0.4138641089449635   F   F   F
  0.8333422700331283  0.6666569644086167  0.4138641089449635   F   F   F
  0.8333422700331283  0.9166569644086167  0.4138641089449635   F   F   F
  0.1666568958537624  0.0833424376166505  0.3513640990662594   F   F   F
  0.1666568958537624  0.3333424376166505  0.3513640990662594   F   F   F
  0.1666568958537624  0.5833424376166505  0.3513640990662594   F   F   F
  0.1666568958537624  0.8333424376166505  0.3513640990662594   F   F   F
  0.4166568958537624  0.0833424376166505  0.3513640990662594   F   F   F
  0.4166568958537624  0.3333424376166505  0.3513640990662594   F   F   F
  0.4166568958537624  0.5833424376166505  0.3513640990662594   F   F   F
  0.4166568958537624  0.8333424376166505  0.3513640990662594   F   F   F
  0.6666568958537624  0.0833424376166505  0.3513640990662594   F   F   F
  0.6666568958537624  0.3333424376166505  0.3513640990662594   F   F   F
  0.6666568958537624  0.5833424376166505  0.3513640990662594   F   F   F
  0.6666568958537624  0.8333424376166505  0.3513640990662594   F   F   F
  0.9166568958537624  0.0833424376166505  0.3513640990662594   F   F   F
  0.9166568958537624  0.3333424376166505  0.3513640990662594   F   F   F
  0.9166568958537624  0.5833424376166505  0.3513640990662594   F   F   F
  0.9166568958537624  0.8333424376166505  0.3513640990662594   F   F   F
  0.0833421456183316  0.1666568756581057  0.5388641089449635   F   F   F
  0.0833421456183316  0.4166568756581057  0.5388641089449635   F   F   F
  0.0833421456183316  0.6666568756581057  0.5388641089449635   F   F   F
  0.0833421456183316  0.9166568756581057  0.5388641089449635   F   F   F
  0.3333421456183316  0.1666568756581057  0.5388641089449635   F   F   F
  0.3333421456183316  0.4166568756581057  0.5388641089449635   F   F   F
  0.3333421456183316  0.6666568756581057  0.5388641089449635   F   F   F
  0.3333421456183316  0.9166568756581057  0.5388641089449635   F   F   F
  0.5833421456183316  0.1666568756581057  0.5388641089449635   F   F   F
  0.5833421456183316  0.4166568756581057  0.5388641089449635   F   F   F
  0.5833421456183316  0.6666568756581057  0.5388641089449635   F   F   F
  0.5833421456183316  0.9166568756581057  0.5388641089449635   F   F   F
  0.8333421456183316  0.1666568756581057  0.5388641089449635   F   F   F
  0.8333421456183316  0.4166568756581057  0.5388641089449635   F   F   F
  0.8333421456183316  0.6666568756581057  0.5388641089449635   F   F   F
  0.8333421456183316  0.9166568756581057  0.5388641089449635   F   F   F
  0.1666567714389657  0.0833423488661396  0.4763640990662594   F   F   F
  0.1666567714389657  0.3333423488661396  0.4763640990662594   F   F   F
  0.1666567714389657  0.5833423488661396  0.4763640990662594   F   F   F
  0.1666567714389657  0.8333423488661396  0.4763640990662594   F   F   F
  0.4166567714389657  0.0833423488661396  0.4763640990662594   F   F   F
  0.4166567714389657  0.3333423488661396  0.4763640990662594   F   F   F
  0.4166567714389657  0.5833423488661396  0.4763640990662594   F   F   F
  0.4166567714389657  0.8333423488661396  0.4763640990662594   F   F   F
  0.6666567714389657  0.0833423488661396  0.4763640990662594   F   F   F
  0.6666567714389657  0.3333423488661396  0.4763640990662594   F   F   F
  0.6666567714389657  0.5833423488661396  0.4763640990662594   F   F   F
  0.6666567714389657  0.8333423488661396  0.4763640990662594   F   F   F
  0.9166567714389657  0.0833423488661396  0.4763640990662594   F   F   F
  0.9166567714389657  0.3333423488661396  0.4763640990662594   F   F   F
  0.9166567714389657  0.5833423488661396  0.4763640990662594   F   F   F
  0.9166567714389657  0.8333423488661396  0.4763640990662594   F   F   F
  0.0851033370394980  0.1648432164639488  0.6737928351655227   T   T   T
  0.0823678156898805  0.4144657089702148  0.6622600597193238   T   T   T
  0.0865265374273194  0.6673702390004198  0.6724222504070456   T   T   T
  0.0823744828645183  0.9196483373969233  0.6621188136074158   T   T   T
  0.3364676305878454  0.1752124632581681  0.6676700575739496   T   T   T
  0.3317258259358925  0.4146552922311408  0.6658134984445652   T   T   T
  0.3331017210299850  0.6715468960443282  0.6634639736207101   T   T   T
  0.3327770292408087  0.9150246765842182  0.6620774462645135   T   T   T
  0.5804858478435855  0.1702990582906309  0.6656300725519985   T   T   T
  0.5759598827464457  0.4037569646294644  0.6732273898248965   T   T   T
  0.5832548709078013  0.6651757600655421  0.6606133759938883   T   T   T
  0.5918071820496955  0.9212520734043012  0.6714797516859986   T   T   T
  0.8311096264514635  0.1588400880926127  0.6641215054284385   T   T   T
  0.8337268555755555  0.4193996305620979  0.6625364851565458   T   T   T
  0.8310385919940314  0.6642186420340800  0.6617317809357266   T   T   T
  0.8326787590287278  0.9246102954976725  0.6676370905564056   T   T   T
  0.1675796832165827  0.0857539436038855  0.6033311859705438   T   T   T
  0.1661641112456731  0.3307233345948321  0.6034325643917484   T   T   T
  0.1659810224387671  0.5838764418803678  0.6026695499598262   T   T   T
  0.1655417103809430  0.8321247933894294  0.6028579951353453   T   T   T
  0.4158427855712084  0.0845923165237223  0.6026440111716491   T   T   T
  0.4171976874678907  0.3339194290721904  0.6024202843228580   T   T   T
  0.4148018182774626  0.5819005323660744  0.6022201110888589   T   T   T
  0.4199243122507665  0.8354027233086897  0.6028752706032375   T   T   T
  0.6652606443654384  0.0828948524699836  0.6032599367706967   T   T   T
  0.6653960145464262  0.3334892769650490  0.6023888215284755   T   T   T
  0.6644505561758313  0.5788475874948279  0.6034804071868900   T   T   T
  0.6673183288937301  0.8348834524185125  0.6026335437377378   T   T   T
  0.9195624735941885  0.0844394624252501  0.6026671527360377   T   T   T
  0.9157384719960820  0.3318637326825278  0.6021556734955441   T   T   T
  0.9193194286888744  0.5848026122930983  0.6027047941622210   T   T   T
  0.9153135460899118  0.8342240373552979  0.6026713218389644   T   T   T
  0.0833223251846178  0.1666771555741846  0.3361358956743672   F   F   F
  0.0833223251846178  0.4166771555741846  0.3361358956743672   F   F   F
  0.0833223251846178  0.6666771555741775  0.3361358956743672   F   F   F
  0.0833223251846178  0.9166771555741775  0.3361358956743672   F   F   F
  0.3333223251846178  0.1666771555741846  0.3361358956743672   F   F   F
  0.3333223251846178  0.4166771555741846  0.3361358956743672   F   F   F
  0.3333223251846178  0.6666771555741775  0.3361358956743672   F   F   F
  0.3333223251846178  0.9166771555741775  0.3361358956743672   F   F   F
  0.5833223251846178  0.1666771555741846  0.3361358956743672   F   F   F
  0.5833223251846178  0.4166771555741846  0.3361358956743672   F   F   F
  0.5833223251846178  0.6666771555741775  0.3361358956743672   F   F   F
  0.5833223251846178  0.9166771555741775  0.3361358956743672   F   F   F
  0.8333223251846178  0.1666771555741846  0.3361358956743672   F   F   F
  0.8333223251846178  0.4166771555741846  0.3361358956743672   F   F   F
  0.8333223251846178  0.6666771555741775  0.3361358956743672   F   F   F
  0.8333223251846178  0.9166771555741775  0.3361358956743672   F   F   F
  0.1666770009509335  0.0833223773943388  0.3986358963144099   F   F   F
  0.1666770009509335  0.3333223773943388  0.3986358963144099   F   F   F
  0.1666770009509335  0.5833223773943388  0.3986358963144099   F   F   F
  0.1666770009509335  0.8333223773943388  0.3986358963144099   F   F   F
  0.4166770009509335  0.0833223773943388  0.3986358963144099   F   F   F
  0.4166770009509335  0.3333223773943388  0.3986358963144099   F   F   F
  0.4166770009509335  0.5833223773943388  0.3986358963144099   F   F   F
  0.4166770009509335  0.8333223773943388  0.3986358963144099   F   F   F
  0.6666770009509335  0.0833223773943388  0.3986358963144099   F   F   F
  0.6666770009509335  0.3333223773943388  0.3986358963144099   F   F   F
  0.6666770009509335  0.5833223773943388  0.3986358963144099   F   F   F
  0.6666770009509335  0.8333223773943388  0.3986358963144099   F   F   F
  0.9166770009509335  0.0833223773943388  0.3986358963144099   F   F   F
  0.9166770009509335  0.3333223773943388  0.3986358963144099   F   F   F
  0.9166770009509335  0.5833223773943388  0.3986358963144099   F   F   F
  0.9166770009509335  0.8333223773943388  0.3986358963144099   F   F   F
  0.0833222007698211  0.1666770668236666  0.4611358956743672   F   F   F
  0.0833222007698211  0.4166770668236666  0.4611358956743672   F   F   F
  0.0833222007698211  0.6666770668236666  0.4611358956743672   F   F   F
  0.0833222007698211  0.9166770668236666  0.4611358956743672   F   F   F
  0.3333222007698211  0.1666770668236666  0.4611358956743672   F   F   F
  0.3333222007698211  0.4166770668236666  0.4611358956743672   F   F   F
  0.3333222007698211  0.6666770668236666  0.4611358956743672   F   F   F
  0.3333222007698211  0.9166770668236666  0.4611358956743672   F   F   F
  0.5833222007698211  0.1666770668236666  0.4611358956743672   F   F   F
  0.5833222007698211  0.4166770668236666  0.4611358956743672   F   F   F
  0.5833222007698211  0.6666770668236666  0.4611358956743672   F   F   F
  0.5833222007698211  0.9166770668236666  0.4611358956743672   F   F   F
  0.8333222007698211  0.1666770668236666  0.4611358956743672   F   F   F
  0.8333222007698211  0.4166770668236666  0.4611358956743672   F   F   F
  0.8333222007698211  0.6666770668236666  0.4611358956743672   F   F   F
  0.8333222007698211  0.9166770668236666  0.4611358956743672   F   F   F
  0.1666768765361368  0.0833222886438278  0.5236358963144099   F   F   F
  0.1666768765361368  0.3333222886438278  0.5236358963144099   F   F   F
  0.1666768765361368  0.5833222886438278  0.5236358963144099   F   F   F
  0.1666768765361368  0.8333222886438278  0.5236358963144099   F   F   F
  0.4166768765361368  0.0833222886438278  0.5236358963144099   F   F   F
  0.4166768765361368  0.3333222886438278  0.5236358963144099   F   F   F
  0.4166768765361368  0.5833222886438278  0.5236358963144099   F   F   F
  0.4166768765361368  0.8333222886438278  0.5236358963144099   F   F   F
  0.6666768765361368  0.0833222886438278  0.5236358963144099   F   F   F
  0.6666768765361368  0.3333222886438278  0.5236358963144099   F   F   F
  0.6666768765361368  0.5833222886438278  0.5236358963144099   F   F   F
  0.6666768765361368  0.8333222886438278  0.5236358963144099   F   F   F
  0.9166768765361368  0.0833222886438278  0.5236358963144099   F   F   F
  0.9166768765361368  0.3333222886438278  0.5236358963144099   F   F   F
  0.9166768765361368  0.5833222886438278  0.5236358963144099   F   F   F
  0.9166768765361368  0.8333222886438278  0.5236358963144099   F   F   F
  0.0844471960428055  0.1669418924979350  0.5865819446576690   T   T   T
  0.0833569335017061  0.4160587126947722  0.5876804452670975   T   T   T
  0.0840214915612862  0.6671879800261930  0.5867691597578248   T   T   T
  0.0827278488422619  0.9170166317598982  0.5877919775783016   T   T   T
  0.3330410518084043  0.1669693424081559  0.5869255214948023   T   T   T
  0.3320692626370992  0.4164430053777826  0.5870478517225413   T   T   T
  0.3336535472790819  0.6679394002846579  0.5875633734749817   T   T   T
  0.3333059880648562  0.9165343835451583  0.5877544652750762   T   T   T
  0.5824545528177881  0.1662423543829397  0.5872443148241060   T   T   T
  0.5830712651936563  0.4162413628222850  0.5865407296519618   T   T   T
  0.5833717759460764  0.6656034970876078  0.5880124690844695   T   T   T
  0.5845493348570161  0.9176680799574992  0.5868801943045382   T   T   T
  0.8322852206854073  0.1654067597619111  0.5874445535860282   T   T   T
  0.8339438578253745  0.4173542614770063  0.5874843664920842   T   T   T
  0.8321996733706564  0.6661981364614541  0.5880785709436475   T   T   T
  0.8335106369270394  0.9174148255812036  0.5870464956465024   T   T   T
  0.1701888155898326  0.0871999837154470  0.6519795799202069   T   T   T
  0.1648037878826326  0.3293719430530663  0.6522122359903226   T   T   T
  0.1653519966883918  0.5833005319575778  0.6520027986587420   T   T   T
  0.1636270511464833  0.8311202262000668  0.6525035240681012   T   T   T
  0.4129872585287527  0.0840059928104823  0.6524629556326932   T   T   T
  0.4190253720313906  0.3382360046450403  0.6500764074713108   T   T   T
  0.4133019850784597  0.5827164543868705  0.6526609850967446   T   T   T
  0.4259719149492255  0.8392702697511950  0.6527025783240059   T   T   T
  0.6633192392575010  0.0853518162636595  0.6524200618600076   T   T   T
  0.6672496844951639  0.3356288077559374  0.6509448710459018   T   T   T
  0.6614273969512297  0.5731560750562853  0.6539931441360670   T   T   T
  0.6673480068914039  0.8335784293642997  0.6516192366656188   T   T   T
  0.9251426318028803  0.0875716702187563  0.6509404710789617   T   T   T
  0.9129040308455230  0.3291284789107474  0.6530184916050565   T   T   T
  0.9229685472866601  0.5875977719260307  0.6523148855478665   T   T   T
  0.9117394285378972  0.8343507563109177  0.6535616964939855   T   T   T
  0.0833225000000013  0.1666774999999987  0.3114693200000005   F   F   F
  0.0833225000000013  0.4166774999999987  0.3114693200000005   F   F   F
  0.0833225000000013  0.6666774999999987  0.3114693200000005   F   F   F
  0.0833225000000013  0.9166774999999987  0.3114693200000005   F   F   F
  0.3333225000000013  0.1666774999999987  0.3114693200000005   F   F   F
  0.3333225000000013  0.4166774999999987  0.3114693200000005   F   F   F
  0.3333225000000013  0.6666774999999987  0.3114693200000005   F   F   F
  0.3333225000000013  0.9166774999999987  0.3114693200000005   F   F   F
  0.5833225000000013  0.1666774999999987  0.3114693200000005   F   F   F
  0.5833225000000013  0.4166774999999987  0.3114693200000005   F   F   F
  0.5833225000000013  0.6666774999999987  0.3114693200000005   F   F   F
  0.5833225000000013  0.9166774999999987  0.3114693200000005   F   F   F
  0.8333225000000013  0.1666774999999987  0.3114693200000005   F   F   F
  0.8333225000000013  0.4166774999999987  0.3114693200000005   F   F   F
  0.8333225000000013  0.6666774999999987  0.3114693200000005   F   F   F
  0.8333225000000013  0.9166774999999987  0.3114693200000005   F   F   F
  0.3234447993184858  0.3903410506315491  0.7167665489974649   T   T   T
  0.7501000000000000  0.7483000000000000  0.6967665489974649
  0.2469832379570005  0.3137378859055755  0.7190152030900910   T   T   T
  0.3857897703532367  0.3688794329599303  0.7208069732506898   T   T   T
  
 
  0.00000000E+00  0.00000000E+00  0.00000000E+00
  0.00000000E+00  0.00000000E+00  0.00000000E+00
  0.00000000E+00  0.00000000E+00  0.00000000E+00
  0.00000000E+00  0.00000000E+00  0.00000000E+00
  0.00000000E+00  0.00000000E+00  0.00000000E+00
  0.00000000E+00  0.00000000E+00  0.00000000E+00
  0.00000000E+00  0.00000000E+00  0.00000000E+00
  0.00000000E+00  0.00000000E+00  0.00000000E+00
  0.00000000E+00  0.00000000E+00  0.00000000E+00
  0.00000000E+00  0.00000000E+00  0.00000000E+00
  0.00000000E+00  0.00000000E+00  0.00000000E+00
  0.00000000E+00  0.00000000E+00  0.00000000E+00
  0.00000000E+00  0.00000000E+00  0.00000000E+00
  0.00000000E+00  0.00000000E+00  0.00000000E+00
  0.00000000E+00  0.00000000E+00  0.00000000E+00
  0.00000000E+00  0.00000000E+00  0.00000000E+00
  0.00000000E+00  0.00000000E+00  0.00000000E+00
  0.00000000E+00  0.00000000E+00  0.00000000E+00
  0.00000000E+00  0.00000000E+00  0.00000000E+00
  0.00000000E+00  0.00000000E+00  0.00000000E+00
  0.00000000E+00  0.00000000E+00  0.00000000E+00
  0.00000000E+00  0.00000000E+00  0.00000000E+00
  0.00000000E+00  0.00000000E+00  0.00000000E+00
  0.00000000E+00  0.00000000E+00  0.00000000E+00
  0.00000000E+00  0.00000000E+00  0.00000000E+00
  0.00000000E+00  0.00000000E+00  0.00000000E+00
  0.00000000E+00  0.00000000E+00  0.00000000E+00
  0.00000000E+00  0.00000000E+00  0.00000000E+00
  0.00000000E+00  0.00000000E+00  0.00000000E+00
  0.00000000E+00  0.00000000E+00  0.00000000E+00
  0.00000000E+00  0.00000000E+00  0.00000000E+00
  0.00000000E+00  0.00000000E+00  0.00000000E+00
  0.00000000E+00  0.00000000E+00  0.00000000E+00
  0.00000000E+00  0.00000000E+00  0.00000000E+00
  0.00000000E+00  0.00000000E+00  0.00000000E+00
  0.00000000E+00  0.00000000E+00  0.00000000E+00
  0.00000000E+00  0.00000000E+00  0.00000000E+00
  0.00000000E+00  0.00000000E+00  0.00000000E+00
  0.00000000E+00  0.00000000E+00  0.00000000E+00
  0.00000000E+00  0.00000000E+00  0.00000000E+00
  0.00000000E+00  0.00000000E+00  0.00000000E+00
  0.00000000E+00  0.00000000E+00  0.00000000E+00
  0.00000000E+00  0.00000000E+00  0.00000000E+00
  0.00000000E+00  0.00000000E+00  0.00000000E+00
  0.00000000E+00  0.00000000E+00  0.00000000E+00
  0.00000000E+00  0.00000000E+00  0.00000000E+00
  0.00000000E+00  0.00000000E+00  0.00000000E+00
  0.00000000E+00  0.00000000E+00  0.00000000E+00
  0.00000000E+00  0.00000000E+00  0.00000000E+00
  0.00000000E+00  0.00000000E+00  0.00000000E+00
  0.00000000E+00  0.00000000E+00  0.00000000E+00
  0.00000000E+00  0.00000000E+00  0.00000000E+00
  0.00000000E+00  0.00000000E+00  0.00000000E+00
  0.00000000E+00  0.00000000E+00  0.00000000E+00
  0.00000000E+00  0.00000000E+00  0.00000000E+00
  0.00000000E+00  0.00000000E+00  0.00000000E+00
  0.00000000E+00  0.00000000E+00  0.00000000E+00
  0.00000000E+00  0.00000000E+00  0.00000000E+00
  0.00000000E+00  0.00000000E+00  0.00000000E+00
  0.00000000E+00  0.00000000E+00  0.00000000E+00
  0.00000000E+00  0.00000000E+00  0.00000000E+00
  0.00000000E+00  0.00000000E+00  0.00000000E+00
  0.00000000E+00  0.00000000E+00  0.00000000E+00
  0.00000000E+00  0.00000000E+00  0.00000000E+00
  0.00000000E+00  0.00000000E+00  0.00000000E+00
  0.00000000E+00  0.00000000E+00  0.00000000E+00
  0.00000000E+00  0.00000000E+00  0.00000000E+00
  0.00000000E+00  0.00000000E+00  0.00000000E+00
  0.00000000E+00  0.00000000E+00  0.00000000E+00
  0.00000000E+00  0.00000000E+00  0.00000000E+00
  0.00000000E+00  0.00000000E+00  0.00000000E+00
  0.00000000E+00  0.00000000E+00  0.00000000E+00
  0.00000000E+00  0.00000000E+00  0.00000000E+00
  0.00000000E+00  0.00000000E+00  0.00000000E+00
  0.00000000E+00  0.00000000E+00  0.00000000E+00
  0.00000000E+00  0.00000000E+00  0.00000000E+00
  0.00000000E+00  0.00000000E+00  0.00000000E+00
  0.00000000E+00  0.00000000E+00  0.00000000E+00
  0.00000000E+00  0.00000000E+00  0.00000000E+00
  0.00000000E+00  0.00000000E+00  0.00000000E+00
  0.00000000E+00  0.00000000E+00  0.00000000E+00
  0.00000000E+00  0.00000000E+00  0.00000000E+00
  0.00000000E+00  0.00000000E+00  0.00000000E+00
  0.00000000E+00  0.00000000E+00  0.00000000E+00
  0.00000000E+00  0.00000000E+00  0.00000000E+00
  0.00000000E+00  0.00000000E+00  0.00000000E+00
  0.00000000E+00  0.00000000E+00  0.00000000E+00
  0.00000000E+00  0.00000000E+00  0.00000000E+00
  0.00000000E+00  0.00000000E+00  0.00000000E+00
  0.00000000E+00  0.00000000E+00  0.00000000E+00
  0.00000000E+00  0.00000000E+00  0.00000000E+00
  0.00000000E+00  0.00000000E+00  0.00000000E+00
  0.00000000E+00  0.00000000E+00  0.00000000E+00
  0.00000000E+00  0.00000000E+00  0.00000000E+00
  0.00000000E+00  0.00000000E+00  0.00000000E+00
  0.00000000E+00  0.00000000E+00  0.00000000E+00
  0.00000000E+00  0.00000000E+00  0.00000000E+00
  0.00000000E+00  0.00000000E+00  0.00000000E+00
  0.00000000E+00  0.00000000E+00  0.00000000E+00
  0.00000000E+00  0.00000000E+00  0.00000000E+00
  0.00000000E+00  0.00000000E+00  0.00000000E+00
  0.00000000E+00  0.00000000E+00  0.00000000E+00
  0.00000000E+00  0.00000000E+00  0.00000000E+00
  0.00000000E+00  0.00000000E+00  0.00000000E+00
  0.00000000E+00  0.00000000E+00  0.00000000E+00
  0.00000000E+00  0.00000000E+00  0.00000000E+00
  0.00000000E+00  0.00000000E+00  0.00000000E+00
  0.00000000E+00  0.00000000E+00  0.00000000E+00
  0.00000000E+00  0.00000000E+00  0.00000000E+00
  0.00000000E+00  0.00000000E+00  0.00000000E+00
  0.00000000E+00  0.00000000E+00  0.00000000E+00
  0.00000000E+00  0.00000000E+00  0.00000000E+00
  0.00000000E+00  0.00000000E+00  0.00000000E+00
  0.00000000E+00  0.00000000E+00  0.00000000E+00
  0.00000000E+00  0.00000000E+00  0.00000000E+00
  0.00000000E+00  0.00000000E+00  0.00000000E+00
  0.00000000E+00  0.00000000E+00  0.00000000E+00
  0.00000000E+00  0.00000000E+00  0.00000000E+00
  0.00000000E+00  0.00000000E+00  0.00000000E+00
  0.00000000E+00  0.00000000E+00  0.00000000E+00
  0.00000000E+00  0.00000000E+00  0.00000000E+00
  0.00000000E+00  0.00000000E+00  0.00000000E+00
  0.00000000E+00  0.00000000E+00  0.00000000E+00
  0.00000000E+00  0.00000000E+00  0.00000000E+00
  0.00000000E+00  0.00000000E+00  0.00000000E+00
  0.00000000E+00  0.00000000E+00  0.00000000E+00
  0.00000000E+00  0.00000000E+00  0.00000000E+00
  0.00000000E+00  0.00000000E+00  0.00000000E+00
  0.00000000E+00  0.00000000E+00  0.00000000E+00
  0.00000000E+00  0.00000000E+00  0.00000000E+00
  0.00000000E+00  0.00000000E+00  0.00000000E+00
  0.00000000E+00  0.00000000E+00  0.00000000E+00
  0.00000000E+00  0.00000000E+00  0.00000000E+00
  0.00000000E+00  0.00000000E+00  0.00000000E+00
  0.00000000E+00  0.00000000E+00  0.00000000E+00
  0.00000000E+00  0.00000000E+00  0.00000000E+00
  0.00000000E+00  0.00000000E+00  0.00000000E+00
  0.00000000E+00  0.00000000E+00  0.00000000E+00
  0.00000000E+00  0.00000000E+00  0.00000000E+00
  0.00000000E+00  0.00000000E+00  0.00000000E+00
  0.00000000E+00  0.00000000E+00  0.00000000E+00
  0.00000000E+00  0.00000000E+00  0.00000000E+00
  0.00000000E+00  0.00000000E+00  0.00000000E+00
  0.00000000E+00  0.00000000E+00  0.00000000E+00
  0.00000000E+00  0.00000000E+00  0.00000000E+00
  0.00000000E+00  0.00000000E+00  0.00000000E+00
  0.00000000E+00  0.00000000E+00  0.00000000E+00
  0.00000000E+00  0.00000000E+00  0.00000000E+00
  0.00000000E+00  0.00000000E+00  0.00000000E+00
  0.00000000E+00  0.00000000E+00  0.00000000E+00
  0.00000000E+00  0.00000000E+00  0.00000000E+00
  0.00000000E+00  0.00000000E+00  0.00000000E+00
  0.00000000E+00  0.00000000E+00  0.00000000E+00
  0.00000000E+00  0.00000000E+00  0.00000000E+00
  0.00000000E+00  0.00000000E+00  0.00000000E+00
  0.00000000E+00  0.00000000E+00  0.00000000E+00
  0.00000000E+00  0.00000000E+00  0.00000000E+00
  0.00000000E+00  0.00000000E+00  0.00000000E+00
  0.00000000E+00  0.00000000E+00  0.00000000E+00
  0.00000000E+00  0.00000000E+00  0.00000000E+00
  0.00000000E+00  0.00000000E+00  0.00000000E+00
  0.00000000E+00  0.00000000E+00  0.00000000E+00
  0.00000000E+00  0.00000000E+00  0.00000000E+00
  0.00000000E+00  0.00000000E+00  0.00000000E+00
  0.00000000E+00  0.00000000E+00  0.00000000E+00
  0.00000000E+00  0.00000000E+00  0.00000000E+00
  0.00000000E+00  0.00000000E+00  0.00000000E+00
  0.00000000E+00  0.00000000E+00  0.00000000E+00
  0.00000000E+00  0.00000000E+00  0.00000000E+00
  0.00000000E+00  0.00000000E+00  0.00000000E+00
  0.00000000E+00  0.00000000E+00  0.00000000E+00
  0.00000000E+00  0.00000000E+00  0.00000000E+00
  0.00000000E+00  0.00000000E+00  0.00000000E+00
  0.00000000E+00  0.00000000E+00  0.00000000E+00
  0.00000000E+00  0.00000000E+00  0.00000000E+00
  0.00000000E+00  0.00000000E+00  0.00000000E+00
  0.00000000E+00  0.00000000E+00  0.00000000E+00
  0.00000000E+00  0.00000000E+00  0.00000000E+00
  0.00000000E+00  0.00000000E+00  0.00000000E+00
  0.00000000E+00  0.00000000E+00  0.00000000E+00
  0.00000000E+00  0.00000000E+00  0.00000000E+00
  0.00000000E+00  0.00000000E+00  0.00000000E+00
  0.00000000E+00  0.00000000E+00  0.00000000E+00
  0.00000000E+00  0.00000000E+00  0.00000000E+00
  0.00000000E+00  0.00000000E+00  0.00000000E+00
  0.00000000E+00  0.00000000E+00  0.00000000E+00
  0.00000000E+00  0.00000000E+00  0.00000000E+00
  0.00000000E+00  0.00000000E+00  0.00000000E+00
  0.00000000E+00  0.00000000E+00  0.00000000E+00
  0.00000000E+00  0.00000000E+00  0.00000000E+00
  0.00000000E+00  0.00000000E+00  0.00000000E+00
  0.00000000E+00  0.00000000E+00  0.00000000E+00
  0.00000000E+00  0.00000000E+00  0.00000000E+00
  0.00000000E+00  0.00000000E+00  0.00000000E+00
  0.00000000E+00  0.00000000E+00  0.00000000E+00
  0.00000000E+00  0.00000000E+00  0.00000000E+00
  0.00000000E+00  0.00000000E+00  0.00000000E+00
  0.00000000E+00  0.00000000E+00  0.00000000E+00
  0.00000000E+00  0.00000000E+00  0.00000000E+00
  0.00000000E+00  0.00000000E+00  0.00000000E+00
  0.00000000E+00  0.00000000E+00  0.00000000E+00
  0.00000000E+00  0.00000000E+00  0.00000000E+00
  0.00000000E+00  0.00000000E+00  0.00000000E+00
  0.00000000E+00  0.00000000E+00  0.00000000E+00
  0.00000000E+00  0.00000000E+00  0.00000000E+00
  0.00000000E+00  0.00000000E+00  0.00000000E+00
  0.00000000E+00  0.00000000E+00  0.00000000E+00
  0.00000000E+00  0.00000000E+00  0.00000000E+00
  0.00000000E+00  0.00000000E+00  0.00000000E+00
  0.00000000E+00  0.00000000E+00  0.00000000E+00
  0.00000000E+00  0.00000000E+00  0.00000000E+00
