Zn96 H16 Pt4 O96
1.0
  12.9159910000000000    0.0000000000000000    0.0000000000000000
  -6.4575310000000004   11.1858439999999995    0.0000000000000000
   0.0000000000000000    0.0000000000000000   41.8715669999999989
Zn O H H
96 96 16 2
Selective dynamics
Direct
0.0833140000000000 0.1666850000000000 0.4124850000000000 T T T
0.0833140000000000 0.4166850000000000 0.4124850000000000 T T T
0.0833140000000000 0.6666850000000000 0.4124850000000000 T T T
0.0833140000000000 0.9166850000000000 0.4124850000000000 T T T
0.3333140000000000 0.1666850000000000 0.4124850000000000 T T T
0.3333140000000000 0.4166850000000000 0.4124850000000000 T T T
0.3333140000000000 0.6666850000000000 0.4124850000000000 T T T
0.3333140000000000 0.9166850000000000 0.4124850000000000 T T T
0.5833140000000000 0.1666850000000000 0.4124850000000000 T T T
0.5833140000000000 0.4166850000000000 0.4124850000000000 T T T
0.5833140000000000 0.6666850000000000 0.4124850000000000 T T T
0.5833140000000000 0.9166850000000000 0.4124850000000000 T T T
0.8333140000000000 0.1666850000000000 0.4124850000000000 T T T
0.8333140000000000 0.4166850000000000 0.4124850000000000 T T T
0.8333140000000000 0.6666850000000000 0.4124850000000000 T T T
0.8333140000000000 0.9166850000000000 0.4124850000000000 T T T
0.1666790000000000 0.0833190000000000 0.3472990000000000 T T T
0.1666790000000000 0.3333190000000000 0.3472990000000000 T T T
0.1666790000000000 0.5833190000000000 0.3472990000000000 T T T
0.1666790000000000 0.8333190000000000 0.3472990000000000 T T T
0.4166790000000000 0.0833190000000000 0.3472990000000000 T T T
0.4166790000000000 0.3333190000000000 0.3472990000000000 T T T
0.4166790000000000 0.5833190000000000 0.3472990000000000 T T T
0.4166790000000000 0.8333190000000000 0.3472990000000000 T T T
0.6666790000000000 0.0833190000000000 0.3472990000000000 T T T
0.6666790000000000 0.3333190000000000 0.3472990000000000 T T T
0.6666790000000000 0.5833190000000000 0.3472990000000000 T T T
0.6666790000000000 0.8333190000000000 0.3472990000000000 T T T
0.9166790000000000 0.0833190000000000 0.3472990000000000 T T T
0.9166790000000000 0.3333190000000000 0.3472990000000000 T T T
0.9166790000000000 0.5833190000000000 0.3472990000000000 T T T
0.9166790000000000 0.8333190000000000 0.3472990000000000 T T T
0.0833420000000000 0.1666570000000000 0.5388640000000000 F F F
0.0833420000000000 0.4166570000000000 0.5388640000000000 F F F
0.0833420000000000 0.6666570000000001 0.5388640000000000 F F F
0.0833420000000000 0.9166570000000001 0.5388640000000000 F F F
0.3333420000000000 0.1666570000000000 0.5388640000000000 F F F
0.3333420000000000 0.4166570000000000 0.5388640000000000 F F F
0.3333420000000000 0.6666570000000001 0.5388640000000000 F F F
0.3333420000000000 0.9166570000000001 0.5388640000000000 F F F
0.5833420000000000 0.1666570000000000 0.5388640000000000 F F F
0.5833420000000000 0.4166570000000000 0.5388640000000000 F F F
0.5833420000000000 0.6666570000000001 0.5388640000000000 F F F
0.5833420000000000 0.9166570000000001 0.5388640000000000 F F F
0.8333420000000000 0.1666570000000000 0.5388640000000000 F F F
0.8333420000000000 0.4166570000000000 0.5388640000000000 F F F
0.8333420000000000 0.6666570000000001 0.5388640000000000 F F F
0.8333420000000000 0.9166570000000001 0.5388640000000000 F F F
0.1666570000000000 0.0833420000000000 0.4763640000000000 F F F
0.1666570000000000 0.3333420000000000 0.4763640000000000 F F F
0.1666570000000000 0.5833420000000000 0.4763640000000000 F F F
0.1666570000000000 0.8333420000000000 0.4763640000000000 F F F
0.4166570000000000 0.0833420000000000 0.4763640000000000 F F F
0.4166570000000000 0.3333420000000000 0.4763640000000000 F F F
0.4166570000000000 0.5833420000000000 0.4763640000000000 F F F
0.4166570000000000 0.8333420000000000 0.4763640000000000 F F F
0.6666570000000001 0.0833420000000000 0.4763640000000000 F F F
0.6666570000000001 0.3333420000000000 0.4763640000000000 F F F
0.6666570000000001 0.5833420000000000 0.4763640000000000 F F F
0.6666570000000001 0.8333420000000000 0.4763640000000000 F F F
0.9166570000000001 0.0833420000000000 0.4763640000000000 F F F
0.9166570000000001 0.3333420000000000 0.4763640000000000 F F F
0.9166570000000001 0.5833420000000000 0.4763640000000000 F F F
0.9166570000000001 0.8333420000000000 0.4763640000000000 F F F
0.0833420000000000 0.1666570000000000 0.6638640000000000 F F F
0.0833420000000000 0.4166570000000000 0.6638640000000000 F F F
0.0833420000000000 0.6666570000000001 0.6638640000000000 F F F
0.0833420000000000 0.9166570000000001 0.6638640000000000 F F F
0.3333420000000000 0.1666570000000000 0.6638640000000000 F F F
0.3333420000000000 0.4166570000000000 0.6638640000000000 F F F
0.3333420000000000 0.6666570000000001 0.6638640000000000 F F F
0.3333420000000000 0.9166570000000001 0.6638640000000000 F F F
0.5833420000000000 0.1666570000000000 0.6638640000000000 F F F
0.5833420000000000 0.4166570000000000 0.6638640000000000 F F F
0.5833420000000000 0.6666570000000001 0.6638640000000000 F F F
0.5833420000000000 0.9166570000000001 0.6638640000000000 F F F
0.8333420000000000 0.1666570000000000 0.6638640000000000 F F F
0.8333420000000000 0.4166570000000000 0.6638640000000000 F F F
0.8333420000000000 0.6666570000000001 0.6638640000000000 F F F
0.8333420000000000 0.9166570000000001 0.6638640000000000 F F F
0.1666570000000000 0.0833420000000000 0.6013640000000000 F F F
0.1666570000000000 0.3333420000000000 0.6013640000000000 F F F
0.1666570000000000 0.5833420000000000 0.6013640000000000 F F F
0.1666570000000000 0.8333420000000000 0.6013640000000000 F F F
0.4166570000000000 0.0833420000000000 0.6013640000000000 F F F
0.4166570000000000 0.3333420000000000 0.6013640000000000 F F F
0.4166570000000000 0.5833420000000000 0.6013640000000000 F F F
0.4166570000000000 0.8333420000000000 0.6013640000000000 F F F
0.6666570000000001 0.0833420000000000 0.6013640000000000 F F F
0.6666570000000001 0.3333420000000000 0.6013640000000000 F F F
0.6666570000000001 0.5833420000000000 0.6013640000000000 F F F
0.6666570000000001 0.8333420000000000 0.6013640000000000 F F F
0.9166570000000001 0.0833420000000000 0.6013640000000000 F F F
0.9166570000000001 0.3333420000000000 0.6013640000000000 F F F
0.9166570000000001 0.5833420000000000 0.6013640000000000 F F F
0.9166570000000001 0.8333420000000000 0.6013640000000000 F F F
0.0833290000000000 0.1666710000000000 0.3382430000000000 T T T
0.0833290000000000 0.4166710000000000 0.3382430000000000 T T T
0.0833290000000000 0.6666710000000000 0.3382430000000000 T T T
0.0833290000000000 0.9166710000000000 0.3382430000000000 T T T
0.3333290000000000 0.1666710000000000 0.3382430000000000 T T T
0.3333290000000000 0.4166710000000000 0.3382430000000000 T T T
0.3333290000000000 0.6666710000000000 0.3382430000000000 T T T
0.3333290000000000 0.9166710000000000 0.3382430000000000 T T T
0.5833290000000000 0.1666710000000000 0.3382430000000000 T T T
0.5833290000000000 0.4166710000000000 0.3382430000000000 T T T
0.5833290000000000 0.6666710000000000 0.3382430000000000 T T T
0.5833290000000000 0.9166710000000000 0.3382430000000000 T T T
0.8333290000000000 0.1666710000000000 0.3382430000000000 T T T
0.8333290000000000 0.4166710000000000 0.3382430000000000 T T T
0.8333290000000000 0.6666710000000000 0.3382430000000000 T T T
0.8333290000000000 0.9166710000000000 0.3382430000000000 T T T
0.1666540000000000 0.0833450000000000 0.3980440000000000 T T T
0.1666540000000000 0.3333450000000000 0.3980440000000000 T T T
0.1666540000000000 0.5833450000000000 0.3980440000000000 T T T
0.1666540000000000 0.8333450000000000 0.3980440000000000 T T T
0.4166540000000000 0.0833450000000000 0.3980440000000000 T T T
0.4166540000000000 0.3333450000000000 0.3980440000000000 T T T
0.4166540000000000 0.5833450000000000 0.3980440000000000 T T T
0.4166540000000000 0.8333450000000000 0.3980440000000000 T T T
0.6666540000000000 0.0833450000000000 0.3980440000000000 T T T
0.6666540000000000 0.3333450000000000 0.3980440000000000 T T T
0.6666540000000000 0.5833450000000000 0.3980440000000000 T T T
0.6666540000000000 0.8333450000000000 0.3980440000000000 T T T
0.9166540000000000 0.0833450000000000 0.3980440000000000 T T T
0.9166540000000000 0.3333450000000000 0.3980440000000000 T T T
0.9166540000000000 0.5833450000000000 0.3980440000000000 T T T
0.9166540000000000 0.8333450000000000 0.3980440000000000 T T T
0.0833220000000000 0.1666770000000000 0.4611360000000000 F F F
0.0833220000000000 0.4166770000000000 0.4611360000000000 F F F
0.0833220000000000 0.6666770000000000 0.4611360000000000 F F F
0.0833220000000000 0.9166770000000000 0.4611360000000000 F F F
0.3333220000000000 0.1666770000000000 0.4611360000000000 F F F
0.3333220000000000 0.4166770000000000 0.4611360000000000 F F F
0.3333220000000000 0.6666770000000000 0.4611360000000000 F F F
0.3333220000000000 0.9166770000000000 0.4611360000000000 F F F
0.5833220000000000 0.1666770000000000 0.4611360000000000 F F F
0.5833220000000000 0.4166770000000000 0.4611360000000000 F F F
0.5833220000000000 0.6666770000000000 0.4611360000000000 F F F
0.5833220000000000 0.9166770000000000 0.4611360000000000 F F F
0.8333220000000000 0.1666770000000000 0.4611360000000000 F F F
0.8333220000000000 0.4166770000000000 0.4611360000000000 F F F
0.8333220000000000 0.6666770000000000 0.4611360000000000 F F F
0.8333220000000000 0.9166770000000000 0.4611360000000000 F F F
0.1666770000000000 0.0833220000000000 0.5236360000000000 F F F
0.1666770000000000 0.3333220000000000 0.5236360000000000 F F F
0.1666770000000000 0.5833220000000000 0.5236360000000000 F F F
0.1666770000000000 0.8333220000000000 0.5236360000000000 F F F
0.4166770000000000 0.0833220000000000 0.5236360000000000 F F F
0.4166770000000000 0.3333220000000000 0.5236360000000000 F F F
0.4166770000000000 0.5833220000000000 0.5236360000000000 F F F
0.4166770000000000 0.8333220000000000 0.5236360000000000 F F F
0.6666770000000000 0.0833220000000000 0.5236360000000000 F F F
0.6666770000000000 0.3333220000000000 0.5236360000000000 F F F
0.6666770000000000 0.5833220000000000 0.5236360000000000 F F F
0.6666770000000000 0.8333220000000000 0.5236360000000000 F F F
0.9166770000000000 0.0833220000000000 0.5236360000000000 F F F
0.9166770000000000 0.3333220000000000 0.5236360000000000 F F F
0.9166770000000000 0.5833220000000000 0.5236360000000000 F F F
0.9166770000000000 0.8333220000000000 0.5236360000000000 F F F
0.0833220000000000 0.1666770000000000 0.5861360000000000 F F F
0.0833220000000000 0.4166770000000000 0.5861360000000000 F F F
0.0833220000000000 0.6666770000000000 0.5861360000000000 F F F
0.0833220000000000 0.9166770000000000 0.5861360000000000 F F F
0.3333220000000000 0.1666770000000000 0.5861360000000000 F F F
0.3333220000000000 0.4166770000000000 0.5861360000000000 F F F
0.3333220000000000 0.6666770000000000 0.5861360000000000 F F F
0.3333220000000000 0.9166770000000000 0.5861360000000000 F F F
0.5833220000000000 0.1666770000000000 0.5861360000000000 F F F
0.5833220000000000 0.4166770000000000 0.5861360000000000 F F F
0.5833220000000000 0.6666770000000000 0.5861360000000000 F F F
0.5833220000000000 0.9166770000000000 0.5861360000000000 F F F
0.8333220000000000 0.1666770000000000 0.5861360000000000 F F F
0.8333220000000000 0.4166770000000000 0.5861360000000000 F F F
0.8333220000000000 0.6666770000000000 0.5861360000000000 F F F
0.8333220000000000 0.9166770000000000 0.5861360000000000 F F F
0.1666770000000000 0.0833220000000000 0.6486360000000000 F F F
0.1666770000000000 0.3333220000000000 0.6486360000000000 F F F
0.1666770000000000 0.5833220000000000 0.6486360000000000 F F F
0.1666770000000000 0.8333220000000000 0.6486360000000000 F F F
0.4166770000000000 0.0833220000000000 0.6486360000000000 F F F
0.4166770000000000 0.3333220000000000 0.6486360000000000 F F F
0.4166770000000000 0.5833220000000000 0.6486360000000000 F F F
0.4166770000000000 0.8333220000000000 0.6486360000000000 F F F
0.6666770000000000 0.0833220000000000 0.6486360000000000 F F F
0.6666770000000000 0.3333220000000000 0.6486360000000000 F F F
0.6666770000000000 0.5833220000000000 0.6486360000000000 F F F
0.6666770000000000 0.8333220000000000 0.6486360000000000 F F F
0.9166770000000000 0.0833220000000000 0.6486360000000000 F F F
0.9166770000000000 0.3333220000000000 0.6486360000000000 F F F
0.9166770000000000 0.5833220000000000 0.6486360000000000 F F F
0.9166770000000000 0.8333220000000000 0.6486360000000000 F F F
0.0833420000000000 0.1666580000000000 0.7015940000000001 F F F
0.0833420000000000 0.4166580000000000 0.7015940000000001 F F F
0.0833420000000000 0.6666580000000000 0.7015940000000001 F F F
0.0833420000000000 0.9166580000000000 0.7015940000000001 F F F
0.3333420000000000 0.1666580000000000 0.7015940000000001 F F F
0.3333420000000000 0.4166580000000000 0.7015940000000001 F F F
0.3333420000000000 0.6666580000000000 0.7015940000000001 F F F
0.3333420000000000 0.9166580000000000 0.7015940000000001 F F F
0.5833420000000000 0.1666580000000000 0.7015940000000001 F F F
0.5833420000000000 0.4166580000000000 0.7015940000000001 F F F
0.5833420000000000 0.6666580000000000 0.7015940000000001 F F F
0.5833420000000000 0.9166580000000000 0.7015940000000001 F F F
0.8333420000000000 0.1666580000000000 0.7015940000000001 F F F
0.8333420000000000 0.4166580000000000 0.7015940000000001 F F F
0.8333420000000000 0.6666580000000000 0.7015940000000001 F F F
0.8333420000000000 0.9166580000000000 0.7015940000000001 F F F
0.5546833400000000 0.4166700000000000 0.29082400000000000 T T T
0.6119766600000000 0.4166700000000000 0.29082400000000000 T T T

