Zn44 O44                                
   1.00000000000000     
     6.4579954242380895    0.0000000000000000   -0.0000000000000010
    -0.0000003428885831    5.2339457258375397    0.0000000000000003
     0.0000000000000000    0.0000000000000000   47.5398400889136141
   Zn   O 
    44    44
Selective dynamics
Direct
  0.5000024712985223  0.0367451051182925  0.1999593132134478   T   T   T
  0.0000025001565049  0.0367446013535186  0.1999593198775571   T   T   T
  0.2500255177592763  0.4982615730514084  0.2108437378052415   T   T   T
  0.7500254199701146  0.4982616910950100  0.2108437223043467   T   T   T
  0.2500230005612423  0.0021259818416510  0.2546453634083932   T   T   T
  0.7500230124138909  0.0021260749195164  0.2546453484635478   T   T   T
  0.0000537543653039  0.4961753323188418  0.2732200337636925   T   T   T
  0.5000537617289993  0.4961753360125627  0.2732200362445738   T   T   T
  0.0000679158845216  0.0054171198672677  0.3137276907552220   F   F   F
  0.5000679158845216  0.0054171198672677  0.3137276907552220   F   F   F
  0.7501302138600110  0.5054169934928225  0.3333311174877451   F   F   F
  0.2501302138600110  0.5054169934928225  0.3333311174877451   F   F   F
  0.7500859317118795  0.0054169778009268  0.3725512201669829   F   F   F
  0.2500859317118795  0.0054169778009268  0.3725512201669829   F   F   F
  0.5001482296873618  0.5054168514264816  0.3921546468995061   F   F   F
  0.0001482296873618  0.5054168514264816  0.3921546468995061   F   F   F
  0.5001039475392304  0.0054168357345930  0.4313747495787510   F   F   F
  0.0001039475392304  0.0054168357345930  0.4313747495787510   F   F   F
  0.2501662455147127  0.5054167093601478  0.4509781763112741   F   F   F
  0.7501662455147127  0.5054167093601478  0.4509781763112741   F   F   F
  0.2501219633665812  0.0054166936682520  0.4901982789905119   F   F   F
  0.7501219633665812  0.0054166936682520  0.4901982789905119   F   F   F
  0.0001842613420635  0.5054165672938069  0.5098017057230351   F   F   F
  0.5001842613420635  0.5054165672938069  0.5098017057230351   F   F   F
  0.0001399791939320  0.0054165516019182  0.5490218084022800   F   F   F
  0.5001399791939320  0.0054165516019182  0.5490218084022800   F   F   F
  0.7502022771694143  0.5054164252274731  0.5686252351348031   F   F   F
  0.2502022771694143  0.5054164252274731  0.5686252351348031   F   F   F
  0.7501579950212829  0.0054164095355773  0.6078453378140409   F   F   F
  0.2501579950212829  0.0054164095355773  0.6078453378140409   F   F   F
  0.5002202929967652  0.5054162831611322  0.6274487645465641   F   F   F
  0.0002202929967652  0.5054162831611322  0.6274487645465641   F   F   F
  0.5001760108486337  0.0054162674692435  0.6666688672258090   F   F   F
  0.0001760108486337  0.0054162674692435  0.6666688672258090   F   F   F
  0.2502383088241160  0.5054161410947913  0.6862722939583321   F   F   F
  0.7502383088241160  0.5054161410947913  0.6862722939583321   F   F   F
  0.2500666763880872  0.9961826241532066  0.7267794500344351   T   T   T
  0.7500667566554640  0.9961826294658351  0.7267794450748610   T   T   T
  0.0000584725007187  0.5021398378459168  0.7453540040958373   T   T   T
  0.5000584580497289  0.5021397860152490  0.7453539812652679   T   T   T
  0.0000350967669291  0.9982827462952315  0.7891554092982389   T   T   T
  0.5000351536695646  0.9982826620885206  0.7891553723660820   T   T   T
  0.7500001836695915  0.5367588319886067  0.8000401587081214   T   T   T
  0.2500002439641449  0.5367584497718312  0.8000401408392150   T   T   T
  0.5000208011320524  0.3858433877157026  0.1922020506415762   T   T   T
  0.0000208329391711  0.3858439140843188  0.1922020406080804   T   T   T
  0.2500058751677798  0.8774839881233731  0.2140045056487523   T   T   T
  0.7500062285657734  0.8774840894510092  0.2140044972617829   T   T   T
  0.2500551149506549  0.3808208291103270  0.2525997942693081   T   T   T
  0.7500551262467781  0.3808209146786510  0.2525997881239945   T   T   T
  0.0000234288476619  0.8784006952292245  0.2741322605485763   T   T   T
  0.5000234834357826  0.8784007004001637  0.2741322608693295   T   T   T
  0.0001282086109029  0.3835914137138801  0.3137229796463146   F   F   F
  0.5001282086109029  0.3835914137138801  0.3137229796463146   F   F   F
  0.7500700098463042  0.8835913714666006  0.3333358591695443   F   F   F
  0.2500700098463042  0.8835913714666006  0.3333358591695443   F   F   F
  0.7501462244382537  0.3835912716475463  0.3725465090580826   F   F   F
  0.2501462244382537  0.3835912716475463  0.3725465090580826   F   F   F
  0.5000880256736551  0.8835912294002597  0.3921593885813124   F   F   F
  0.0000880256736551  0.8835912294002597  0.3921593885813124   F   F   F
  0.5001642402656117  0.3835911295812053  0.4313700384698507   F   F   F
  0.0001642402656117  0.3835911295812053  0.4313700384698507   F   F   F
  0.2501060415010059  0.8835910873339259  0.4509829179930733   F   F   F
  0.7501060415010059  0.8835910873339259  0.4509829179930733   F   F   F
  0.2501822560929625  0.3835909875148715  0.4901935678816116   F   F   F
  0.7501822560929625  0.3835909875148715  0.4901935678816116   F   F   F
  0.0001240573283567  0.8835909452675850  0.5098064474048414   F   F   F
  0.5001240573283567  0.8835909452675850  0.5098064474048414   F   F   F
  0.0002002719203134  0.3835908454485306  0.5490170972933797   F   F   F
  0.5002002719203134  0.3835908454485306  0.5490170972933797   F   F   F
  0.7501420731557076  0.8835908032012512  0.5686299768166023   F   F   F
  0.2501420731557076  0.8835908032012512  0.5686299768166023   F   F   F
  0.7502182877476642  0.3835907033821968  0.6078406267051406   F   F   F
  0.2502182877476642  0.3835907033821968  0.6078406267051406   F   F   F
  0.5001600889830584  0.8835906611349102  0.6274535062283704   F   F   F
  0.0001600889830584  0.8835906611349102  0.6274535062283704   F   F   F
  0.5002363035750150  0.3835905613158559  0.6666641561169087   F   F   F
  0.0002363035750150  0.3835905613158559  0.6666641561169087   F   F   F
  0.2501781048104093  0.8835905190685764  0.6862770356401313   F   F   F
  0.7501781048104093  0.8835905190685764  0.6862770356401313   F   F   F
  0.2500619737156953  0.3784131905775254  0.7258671575459346   T   T   T
  0.7500620741392297  0.3784131927084786  0.7258671551142086   T   T   T
  0.0000748166788824  0.8808350692731537  0.7474002659271406   T   T   T
  0.5000748174575307  0.8808350242534218  0.7474002463529317   T   T   T
  0.0000065991094687  0.3775003574148457  0.7859950207791044   T   T   T
  0.5000064393106598  0.3775003590430188  0.7859949963566777   T   T   T
  0.7500289228963837  0.8858628537970148  0.8077971108299522   T   T   T
  0.2500290109567516  0.8858632834765956  0.8077971139985181   T   T   T
 
  0.00000000E+00  0.00000000E+00  0.00000000E+00
  0.00000000E+00  0.00000000E+00  0.00000000E+00
  0.00000000E+00  0.00000000E+00  0.00000000E+00
  0.00000000E+00  0.00000000E+00  0.00000000E+00
  0.00000000E+00  0.00000000E+00  0.00000000E+00
  0.00000000E+00  0.00000000E+00  0.00000000E+00
  0.00000000E+00  0.00000000E+00  0.00000000E+00
  0.00000000E+00  0.00000000E+00  0.00000000E+00
  0.00000000E+00  0.00000000E+00  0.00000000E+00
  0.00000000E+00  0.00000000E+00  0.00000000E+00
  0.00000000E+00  0.00000000E+00  0.00000000E+00
  0.00000000E+00  0.00000000E+00  0.00000000E+00
  0.00000000E+00  0.00000000E+00  0.00000000E+00
  0.00000000E+00  0.00000000E+00  0.00000000E+00
  0.00000000E+00  0.00000000E+00  0.00000000E+00
  0.00000000E+00  0.00000000E+00  0.00000000E+00
  0.00000000E+00  0.00000000E+00  0.00000000E+00
  0.00000000E+00  0.00000000E+00  0.00000000E+00
  0.00000000E+00  0.00000000E+00  0.00000000E+00
  0.00000000E+00  0.00000000E+00  0.00000000E+00
  0.00000000E+00  0.00000000E+00  0.00000000E+00
  0.00000000E+00  0.00000000E+00  0.00000000E+00
  0.00000000E+00  0.00000000E+00  0.00000000E+00
  0.00000000E+00  0.00000000E+00  0.00000000E+00
  0.00000000E+00  0.00000000E+00  0.00000000E+00
  0.00000000E+00  0.00000000E+00  0.00000000E+00
  0.00000000E+00  0.00000000E+00  0.00000000E+00
  0.00000000E+00  0.00000000E+00  0.00000000E+00
  0.00000000E+00  0.00000000E+00  0.00000000E+00
  0.00000000E+00  0.00000000E+00  0.00000000E+00
  0.00000000E+00  0.00000000E+00  0.00000000E+00
  0.00000000E+00  0.00000000E+00  0.00000000E+00
  0.00000000E+00  0.00000000E+00  0.00000000E+00
  0.00000000E+00  0.00000000E+00  0.00000000E+00
  0.00000000E+00  0.00000000E+00  0.00000000E+00
  0.00000000E+00  0.00000000E+00  0.00000000E+00
  0.00000000E+00  0.00000000E+00  0.00000000E+00
  0.00000000E+00  0.00000000E+00  0.00000000E+00
  0.00000000E+00  0.00000000E+00  0.00000000E+00
  0.00000000E+00  0.00000000E+00  0.00000000E+00
  0.00000000E+00  0.00000000E+00  0.00000000E+00
  0.00000000E+00  0.00000000E+00  0.00000000E+00
  0.00000000E+00  0.00000000E+00  0.00000000E+00
  0.00000000E+00  0.00000000E+00  0.00000000E+00
  0.00000000E+00  0.00000000E+00  0.00000000E+00
  0.00000000E+00  0.00000000E+00  0.00000000E+00
  0.00000000E+00  0.00000000E+00  0.00000000E+00
  0.00000000E+00  0.00000000E+00  0.00000000E+00
  0.00000000E+00  0.00000000E+00  0.00000000E+00
  0.00000000E+00  0.00000000E+00  0.00000000E+00
  0.00000000E+00  0.00000000E+00  0.00000000E+00
  0.00000000E+00  0.00000000E+00  0.00000000E+00
  0.00000000E+00  0.00000000E+00  0.00000000E+00
  0.00000000E+00  0.00000000E+00  0.00000000E+00
  0.00000000E+00  0.00000000E+00  0.00000000E+00
  0.00000000E+00  0.00000000E+00  0.00000000E+00
  0.00000000E+00  0.00000000E+00  0.00000000E+00
  0.00000000E+00  0.00000000E+00  0.00000000E+00
  0.00000000E+00  0.00000000E+00  0.00000000E+00
  0.00000000E+00  0.00000000E+00  0.00000000E+00
  0.00000000E+00  0.00000000E+00  0.00000000E+00
  0.00000000E+00  0.00000000E+00  0.00000000E+00
  0.00000000E+00  0.00000000E+00  0.00000000E+00
  0.00000000E+00  0.00000000E+00  0.00000000E+00
  0.00000000E+00  0.00000000E+00  0.00000000E+00
  0.00000000E+00  0.00000000E+00  0.00000000E+00
  0.00000000E+00  0.00000000E+00  0.00000000E+00
  0.00000000E+00  0.00000000E+00  0.00000000E+00
  0.00000000E+00  0.00000000E+00  0.00000000E+00
  0.00000000E+00  0.00000000E+00  0.00000000E+00
  0.00000000E+00  0.00000000E+00  0.00000000E+00
  0.00000000E+00  0.00000000E+00  0.00000000E+00
  0.00000000E+00  0.00000000E+00  0.00000000E+00
  0.00000000E+00  0.00000000E+00  0.00000000E+00
  0.00000000E+00  0.00000000E+00  0.00000000E+00
  0.00000000E+00  0.00000000E+00  0.00000000E+00
  0.00000000E+00  0.00000000E+00  0.00000000E+00
  0.00000000E+00  0.00000000E+00  0.00000000E+00
  0.00000000E+00  0.00000000E+00  0.00000000E+00
  0.00000000E+00  0.00000000E+00  0.00000000E+00
  0.00000000E+00  0.00000000E+00  0.00000000E+00
  0.00000000E+00  0.00000000E+00  0.00000000E+00
  0.00000000E+00  0.00000000E+00  0.00000000E+00
  0.00000000E+00  0.00000000E+00  0.00000000E+00
  0.00000000E+00  0.00000000E+00  0.00000000E+00
  0.00000000E+00  0.00000000E+00  0.00000000E+00
  0.00000000E+00  0.00000000E+00  0.00000000E+00
  0.00000000E+00  0.00000000E+00  0.00000000E+00
