Zn6 O6                                  
    1.000000000000000     
     3.2289976818084343    0.0000000000000000    0.0000000000000002
    -1.6143825250830863    2.7964612079512898    0.0000000000000002
     0.0000000000000000    0.0000000000000000   41.8715658066988325
   Zn   O    H 
     6     6     1
Selective dynamics
Direct
  0.3333690801325133  0.6666278576344808  0.4138641089449635   F   F   F
  0.6666275834150568  0.3333697504666091  0.3513640990662594   F   F   F
  0.3333685824733266  0.6666275026324087  0.5388641089449635   F   F   F
  0.6666270857558700  0.3333693954645440  0.4763640990662594   F   F   F
  0.3333240552994567  0.6666716935420212  0.6666190091963884   T   T   T
  0.6667062685464487  0.3332910826784357  0.6028336488934301   T   T   T
  0.3332893007384712  0.6667086222967242  0.3361358956743672   F   F   F
  0.6667080038037341  0.3332895095773623  0.3986358963144099   F   F   F
  0.3332888030792915  0.6667082672946592  0.4611358956743672   F   F   F
  0.6667075061445473  0.3332891545752972  0.5236358963144099   F   F   F
  0.3333398306001314  0.6666563854699206  0.5870580368951863   T   T   T
  0.6666639479974137  0.3333326015263083  0.6520505059522250   T   T   T
  0.3332899999999981  0.6667100000000019  0.3114693200000005   F   F   F
 
  0.00000000E+00  0.00000000E+00  0.00000000E+00
  0.00000000E+00  0.00000000E+00  0.00000000E+00
  0.00000000E+00  0.00000000E+00  0.00000000E+00
  0.00000000E+00  0.00000000E+00  0.00000000E+00
  0.00000000E+00  0.00000000E+00  0.00000000E+00
  0.00000000E+00  0.00000000E+00  0.00000000E+00
  0.00000000E+00  0.00000000E+00  0.00000000E+00
  0.00000000E+00  0.00000000E+00  0.00000000E+00
  0.00000000E+00  0.00000000E+00  0.00000000E+00
  0.00000000E+00  0.00000000E+00  0.00000000E+00
  0.00000000E+00  0.00000000E+00  0.00000000E+00
  0.00000000E+00  0.00000000E+00  0.00000000E+00
  0.00000000E+00  0.00000000E+00  0.00000000E+00
