Zn6 O6
1.0
   3.2289976818084343    0.0000000000000000    0.0000000000000002
  -1.6143825250830863    2.7964612079512898    0.0000000000000002
   0.0000000000000000    0.0000000000000000   41.8715658066988325
Zn O H
6 6 1
Selective Dynamics
direct
0.3333690801325119 0.6666278576344787 0.4138641089449646 F F F
0.6666275834150580 0.3333697504666117 0.3513640990662562 F F F
0.3333685824733272 0.6666275026324101 0.5388641089449646 F F F
0.6666270857558733 0.3333693954645431 0.4763640990662561 F F F
0.3333680848141424 0.6666271476303415 0.6638641089449646 T T T
0.6666265880966885 0.3333690404624744 0.6013640990662561 T T T
0.3332893007384732 0.6667086222967277 0.3361358956743692 F F F
0.6667080038037346 0.3332895095773656 0.3986358963144103 F F F
0.3332888030792884 0.6667082672946590 0.4611358956743694 F F F
0.6667075061445498 0.3332891545752970 0.5236358963144102 F F F
0.3332883054201036 0.6667079122925904 0.5861358956743694 T T T
0.6667070084853650 0.3332887995732283 0.6486358963144102 T T T
0.3332900000000000 0.6667100000000000 0.3114693200000000 F F F

