Zn96 H34 Pt4 O97
1.0
  12.9159908295000001    0.0000000000000000    0.0000000000000000
  -6.4575307008999996   11.1858444632000005    0.0000000000000000
   0.0000000000000000    0.0000000000000000   41.8715667725000031
Zn O H Pt O H
96 96 16 4 1 2
Selective dynamics
direct
   0.0833422689999992    0.1666569710000019    0.4138641059999982 F F F Zn
   0.0833422689999992    0.4166569710000019    0.4138641059999982 F F F Zn
   0.0833422689999993    0.6666569710000019    0.4138641059999982 F F F Zn
   0.0833422689999992    0.9166569710000020    0.4138641059999982 F F F Zn
   0.3333422540000014    0.1666569710000019    0.4138641059999982 F F F Zn
   0.3333422540000015    0.4166569710000019    0.4138641059999982 F F F Zn
   0.3333422540000016    0.6666569710000019    0.4138641059999982 F F F Zn
   0.3333422540000015    0.9166569710000020    0.4138641059999982 F F F Zn
   0.5833422540000015    0.1666569710000019    0.4138641059999982 F F F Zn
   0.5833422540000015    0.4166569710000019    0.4138641059999982 F F F Zn
   0.5833422540000015    0.6666569710000019    0.4138641059999982 F F F Zn
   0.5833422540000015    0.9166569710000020    0.4138641059999982 F F F Zn
   0.8333422540000015    0.1666569710000019    0.4138641059999982 F F F Zn
   0.8333422540000015    0.4166569710000019    0.4138641059999982 F F F Zn
   0.8333422540000015    0.6666569710000019    0.4138641059999982 F F F Zn
   0.8333422540000015    0.9166569710000020    0.4138641059999982 F F F Zn
   0.1666568959999992    0.0833424400000027    0.3513641059999983 F F F Zn
   0.1666568959999992    0.3333424329999987    0.3513641059999983 F F F Zn
   0.1666568959999992    0.5833424329999986    0.3513641059999983 F F F Zn
   0.1666568959999992    0.8333424329999986    0.3513641059999983 F F F Zn
   0.4166569109999969    0.0833424400000027    0.3513641059999983 F F F Zn
   0.4166569109999969    0.3333424329999987    0.3513641059999983 F F F Zn
   0.4166569109999969    0.5833424329999986    0.3513641059999983 F F F Zn
   0.4166569109999969    0.8333424329999986    0.3513641059999983 F F F Zn
   0.6666569109999969    0.0833424400000027    0.3513641059999983 F F F Zn
   0.6666569109999969    0.3333424329999987    0.3513641059999983 F F F Zn
   0.6666569109999969    0.5833424329999986    0.3513641059999983 F F F Zn
   0.6666569109999968    0.8333424329999986    0.3513641059999983 F F F Zn
   0.9166569109999970    0.0833424400000027    0.3513641059999983 F F F Zn
   0.9166569109999969    0.3333424329999987    0.3513641059999983 F F F Zn
   0.9166569109999968    0.5833424329999986    0.3513641059999983 F F F Zn
   0.9166569109999969    0.8333424329999986    0.3513641059999983 F F F Zn
   0.0833421419999993    0.1666568819999981    0.5388641360000008 F F F Zn
   0.0833421419999993    0.4166568819999981    0.5388641360000008 F F F Zn
   0.0833421419999993    0.6666568520000027    0.5388641360000008 F F F Zn
   0.0833421419999994    0.9166568520000027    0.5388641360000008 F F F Zn
   0.3333421350000023    0.1666568819999981    0.5388641360000008 F F F Zn
   0.3333421350000023    0.4166568819999981    0.5388641360000008 F F F Zn
   0.3333421350000023    0.6666568520000027    0.5388641360000008 F F F Zn
   0.3333421350000023    0.9166568520000027    0.5388641360000008 F F F Zn
   0.5833421350000023    0.1666568819999981    0.5388641360000008 F F F Zn
   0.5833421350000022    0.4166568819999981    0.5388641360000008 F F F Zn
   0.5833421350000023    0.6666568520000027    0.5388641360000008 F F F Zn
   0.5833421350000023    0.9166568520000027    0.5388641360000008 F F F Zn
   0.8333421350000022    0.1666568819999981    0.5388641360000008 F F F Zn
   0.8333421350000023    0.4166568819999981    0.5388641360000008 F F F Zn
   0.8333421350000023    0.6666568520000027    0.5388641360000008 F F F Zn
   0.8333421350000023    0.9166568520000027    0.5388641360000008 F F F Zn
   0.1666567770000000    0.0833423509999989    0.4763641059999983 F F F Zn
   0.1666567770000000    0.3333423440000018    0.4763641059999983 F F F Zn
   0.1666567770000000    0.5833423730000008    0.4763641059999983 F F F Zn
   0.1666567770000001    0.8333423730000008    0.4763641059999983 F F F Zn
   0.4166567919999977    0.0833423509999989    0.4763641059999983 F F F Zn
   0.4166567919999977    0.3333423440000018    0.4763641059999983 F F F Zn
   0.4166567919999977    0.5833423730000008    0.4763641059999983 F F F Zn
   0.4166567919999978    0.8333423730000008    0.4763641059999983 F F F Zn
   0.6666567919999976    0.0833423509999989    0.4763641059999983 F F F Zn
   0.6666567919999976    0.3333423440000018    0.4763641059999983 F F F Zn
   0.6666567919999977    0.5833423730000008    0.4763641059999983 F F F Zn
   0.6666567919999977    0.8333423730000008    0.4763641059999983 F F F Zn
   0.9166567919999977    0.0833423509999989    0.4763641059999983 F F F Zn
   0.9166567919999977    0.3333423440000018    0.4763641059999983 F F F Zn
   0.9166567919999977    0.5833423730000008    0.4763641059999983 F F F Zn
   0.9166567919999977    0.8333423730000008    0.4763641059999983 F F F Zn
   0.0800010969234677    0.1680192845295565    0.6620300375496626 T T T Zn
   0.0847616126699506    0.4179629367861040    0.6616145888270708 T T T Zn
   0.0801436961289355    0.6590822600497930    0.6598576937968588 T T T Zn
   0.0747058597230038    0.9121518673043881    0.6599416256869048 T T T Zn
   0.3367163372131188    0.1725783674272137    0.6592273764921686 T T T Zn
   0.3568549462695927    0.4312288518928185    0.6723659914027422 T T T Zn
   0.3558032432799507    0.6754778240320860    0.6743912128361629 T T T Zn
   0.3350633617273003    0.9117703527400778    0.6597299194530919 T T T Zn
   0.5890162004747097    0.1685202587132295    0.6598355084766609 T T T Zn
   0.5912182008850380    0.4291895322630452    0.6697292048556704 T T T Zn
   0.5865404637468714    0.6697699242764870    0.6649182711515209 T T T Zn
   0.5766014699720755    0.8975162804159780    0.6731385943411823 T T T Zn
   0.8325201869732409    0.1662273372605227    0.6617486522901359 T T T Zn
   0.8180591168530214    0.4284081032371603    0.6766955352500190 T T T Zn
   0.8180259240223933    0.6616112857760400    0.6707966372529057 T T T Zn
   0.8134092244969366    0.8917410196746118    0.6733879588996032 T T T Zn
   0.1651878652649188    0.0834841728118292    0.6013343681935410 T T T Zn
   0.1710216610253283    0.3359152071503644    0.6046955337755335 T T T Zn
   0.1727272177019472    0.5849719113816221    0.6044872955150780 T T T Zn
   0.1651597353271725    0.8310968911857161    0.6012014892061330 T T T Zn
   0.4181255214325930    0.0837183125333496    0.6010463170700575 T T T Zn
   0.4209142856379913    0.3394686526252997    0.6029675540645911 T T T Zn
   0.4169585770551052    0.5829913243040110    0.6027157706751538 T T T Zn
   0.4190665412663249    0.8298070732802501    0.6023114551497954 T T T Zn
   0.6652583407924482    0.0773105395713003    0.6042124154169741 T T T Zn
   0.6688205394627715    0.3364576920296400    0.6030686210748399 T T T Zn
   0.6664019739348886    0.5836069721033752    0.6000842437344929 T T T Zn
   0.6668617171292226    0.8328447744552961    0.6014623963834183 T T T Zn
   0.9130377998232859    0.0782943768746094    0.6050037255562302 T T T Zn
   0.9143539853915499    0.3353050661763461    0.6052044410655881 T T T Zn
   0.9124627907778091    0.5810475967158198    0.6039798232624278 T T T Zn
   0.9098783314619752    0.8289548526216280    0.6032843186569821 T T T Zn
   0.0833223240000009    0.1666771619999992    0.3361358940000017 F F F O
   0.0833223240000009    0.4166771769999968    0.3361358940000017 F F F O
   0.0833223240000009    0.6666771769999970    0.3361358940000017 F F F O
   0.0833223240000009    0.9166771769999970    0.3361358940000017 F F F O
   0.3333223160000003    0.1666771619999992    0.3361358940000017 F F F O
   0.3333223160000002    0.4166771769999968    0.3361358940000017 F F F O
   0.3333223160000003    0.6666771769999970    0.3361358940000017 F F F O
   0.3333223160000003    0.9166771769999970    0.3361358940000017 F F F O
   0.5833223460000027    0.1666771619999992    0.3361358940000017 F F F O
   0.5833223460000028    0.4166771769999968    0.3361358940000017 F F F O
   0.5833223460000028    0.6666771769999970    0.3361358940000017 F F F O
   0.5833223460000028    0.9166771769999970    0.3361358940000017 F F F O
   0.8333223460000028    0.1666771619999992    0.3361358940000017 F F F O
   0.8333223460000028    0.4166771769999968    0.3361358940000017 F F F O
   0.8333223460000028    0.6666771769999970    0.3361358940000017 F F F O
   0.8333223460000028    0.9166771769999970    0.3361358940000017 F F F O
   0.1666769979999998    0.0833223759999981    0.3986358940000017 F F F O
   0.1666769979999998    0.3333223759999981    0.3986358940000017 F F F O
   0.1666769979999998    0.5833224060000006    0.3986358940000017 F F F O
   0.1666769979999998    0.8333224060000007    0.3986358940000017 F F F O
   0.4166769979999998    0.0833223759999981    0.3986358940000017 F F F O
   0.4166769979999998    0.3333223759999981    0.3986358940000017 F F F O
   0.4166769979999998    0.5833224060000006    0.3986358940000017 F F F O
   0.4166769979999999    0.8333224060000007    0.3986358940000017 F F F O
   0.6666769979999998    0.0833223759999981    0.3986358940000017 F F F O
   0.6666769979999998    0.3333223759999981    0.3986358940000017 F F F O
   0.6666769979999998    0.5833224060000006    0.3986358940000017 F F F O
   0.6666769979999999    0.8333224060000007    0.3986358940000017 F F F O
   0.9166769979999998    0.0833223759999981    0.3986358940000017 F F F O
   0.9166769979999998    0.3333223759999981    0.3986358940000017 F F F O
   0.9166769979999998    0.5833224060000006    0.3986358940000017 F F F O
   0.9166769979999998    0.8333224060000007    0.3986358940000017 F F F O
   0.0833221970000011    0.1666770730000025    0.4611358940000017 F F F O
   0.0833221970000011    0.4166770579999978    0.4611358940000017 F F F O
   0.0833221970000011    0.6666770579999977    0.4611358940000017 F F F O
   0.0833221970000010    0.9166770579999978    0.4611358940000017 F F F O
   0.3333221970000011    0.1666770730000025    0.4611358940000017 F F F O
   0.3333221970000011    0.4166770579999978    0.4611358940000017 F F F O
   0.3333221970000011    0.6666770579999977    0.4611358940000017 F F F O
   0.3333221970000010    0.9166770579999978    0.4611358940000017 F F F O
   0.5833221669999986    0.1666770730000025    0.4611358940000017 F F F O
   0.5833221669999986    0.4166770579999978    0.4611358940000017 F F F O
   0.5833221669999986    0.6666770579999977    0.4611358940000017 F F F O
   0.5833221669999986    0.9166770579999978    0.4611358940000017 F F F O
   0.8333221669999986    0.1666770730000025    0.4611358940000017 F F F O
   0.8333221669999985    0.4166770579999978    0.4611358940000017 F F F O
   0.8333221669999986    0.6666770579999977    0.4611358940000017 F F F O
   0.8333221669999986    0.9166770579999978    0.4611358940000017 F F F O
   0.1666768790000006    0.0833222870000014    0.5236359239999970 F F F O
   0.1666768790000006    0.3333222870000014    0.5236359239999970 F F F O
   0.1666768790000006    0.5833222870000014    0.5236359239999970 F F F O
   0.1666768790000006    0.8333222870000014    0.5236359239999970 F F F O
   0.4166768790000006    0.0833222870000014    0.5236359239999970 F F F O
   0.4166768790000006    0.3333222870000014    0.5236359239999970 F F F O
   0.4166768790000006    0.5833222870000014    0.5236359239999970 F F F O
   0.4166768790000006    0.8333222870000014    0.5236359239999970 F F F O
   0.6666768790000007    0.0833222870000014    0.5236359239999970 F F F O
   0.6666768790000006    0.3333222870000014    0.5236359239999970 F F F O
   0.6666768790000006    0.5833222870000014    0.5236359239999970 F F F O
   0.6666768790000006    0.8333222870000014    0.5236359239999970 F F F O
   0.9166768790000006    0.0833222870000014    0.5236359239999970 F F F O
   0.9166768790000006    0.3333222870000014    0.5236359239999970 F F F O
   0.9166768790000005    0.5833222870000014    0.5236359239999970 F F F O
   0.9166768790000006    0.8333222870000014    0.5236359239999970 F F F O
   0.0813008019258845    0.1681034188950434    0.5887072608461779 T T T O
   0.0829115093836492    0.4162102209779945    0.5894935256763247 T T T O
   0.0830552595217711    0.6631088615127966    0.5882444365447697 T T T O
   0.0813670500974411    0.9154720411515029    0.5877950520158208 T T T O
   0.3336615033341702    0.1677957694795751    0.5878396602966660 T T T O
   0.3321828121055717    0.4151423700326262    0.5866576150037446 T T T O
   0.3326737001495416    0.6652819528044418    0.5861778340088577 T T T O
   0.3330575330676098    0.9158124496184783    0.5874491961632202 T T T O
   0.5858096967350832    0.1657712664126905    0.5879359547037950 T T T O
   0.5834682436104686    0.4144274067298285    0.5858680474111821 T T T O
   0.5815179335860421    0.6667897958537026    0.5855877458388861 T T T O
   0.5833162140311146    0.9171285385710918    0.5860228557257727 T T T O
   0.8338006188662561    0.1671765529071720    0.5892160140795326 T T T O
   0.8342649407596595    0.4164627347236873    0.5869076389627992 T T T O
   0.8354872242055434    0.6663345222025185    0.5859806681515423 T T T O
   0.8353922730731256    0.9180663439730737    0.5863698838475457 T T T O
   0.1663985755695094    0.0826820597912459    0.6533271159414440 T T T O
   0.1787412531793109    0.3385113172198402    0.6566241521002425 T T T O
   0.1804237146004439    0.5897062616841353    0.6556262655726783 T T T O
   0.1651695548451997    0.8322021964818305    0.6530730786462513 T T T O
   0.4164476998003793    0.0821440305626879    0.6529983623589928 T T T O
   0.4237706771266758    0.3374398417009274    0.6508865335789267 T T T O
   0.4131682522848835    0.5814947975661725    0.6488600051697730 T T T O
   0.4176678855287079    0.8317514274210112    0.6493551891115033 T T T O
   0.6609609790298521    0.0710804131847809    0.6550469755165267 T T T O
   0.6641043251610341    0.3334651501001674    0.6506391408550840 T T T O
   0.6639384714935588    0.5843746176291660    0.6457187962170536 T T T O
   0.6685979621992715    0.8392653806198922    0.6473966232435941 T T T O
   0.9098958391433527    0.0708791921016925    0.6564072975858508 T T T O
   0.9115500645358026    0.3394783982436493    0.6568958827869338 T T T O
   0.9143559212258837    0.5853591598565870    0.6517694157773519 T T T O
   0.9101124214761427    0.8272643887247285    0.6511486070318213 T T T O
   0.0833225029999980    0.1666775050000027    0.3114693160000002 F F F H0.50+
   0.0833225029999980    0.4166775050000028    0.3114693160000002 F F F H0.50+
   0.0833225029999980    0.6666774750000002    0.3114693160000002 F F F H0.50+
   0.0833225029999980    0.9166774750000002    0.3114693160000002 F F F H0.50+
   0.3333224949999973    0.1666775050000027    0.3114693160000002 F F F H0.50+
   0.3333224949999972    0.4166775050000028    0.3114693160000002 F F F H0.50+
   0.3333224949999972    0.6666774750000002    0.3114693160000002 F F F H0.50+
   0.3333224949999973    0.9166774750000002    0.3114693160000002 F F F H0.50+
   0.5833225249999998    0.1666775050000027    0.3114693160000002 F F F H0.50+
   0.5833225249999998    0.4166775050000028    0.3114693160000002 F F F H0.50+
   0.5833225249999998    0.6666774750000002    0.3114693160000002 F F F H0.50+
   0.5833225249999998    0.9166774750000002    0.3114693160000002 F F F H0.50+
   0.8333225249999998    0.1666775050000027    0.3114693160000002 F F F H0.50+
   0.8333225249999998    0.4166775050000028    0.3114693160000002 F F F H0.50+
   0.8333225249999998    0.6666774750000002    0.3114693160000002 F F F H0.50+
   0.8333225249999998    0.9166774750000002    0.3114693160000002 F F F H0.50+
   0.5214712188537334    0.5203555047624633    0.7163885884785941 T T T Pt
   0.7319619201562446    0.5177923621530597    0.7167660616558464 T T T Pt
   0.5221311644527304    0.7392541425677237    0.7154217841536195 T T T Pt
   0.7276324765078002    0.7284289897534890    0.7176749479856781 T T T Pt
   0.737515  0.52179   0.766333 T T T
   0.678486  0.53671   0.776454 T T T
   0.69729   0.435407  0.763956 T T T
