Zn6 H1 O6                               
   1.00000000000000     
     3.2289977074000000    0.0000000000000000    0.0000000000000000
    -1.6143826751999999    2.7964611158000001    0.0000000000000000
     0.0000000000000000    0.0000000000000000   41.6376190185999988
   Zn   O    H 
     6     6     1
Direct
  0.3668932510826011  0.6331071460142041  0.3647114965009663
  0.7006063878090387  0.2993954655996376  0.2994865622146250
  0.3559200812435535  0.6440797239860672  0.4934762241948647
  0.6971440315932469  0.3028556301830605  0.4291378880946795
  0.3445674395853686  0.6554321041047331  0.6221570948365809
  0.6794889812990021  0.3205107046207303  0.5578321423297368
  0.3637269403485277  0.6362728099381272  0.4125600835923393
  0.7002380621513709  0.2997623555520263  0.3482813187099438
  0.3463626703748091  0.6536369561502369  0.5413208293626255
  0.6893233655792557  0.3106764152006036  0.4769719272922757
  0.3700601968083745  0.6299396683813328  0.6699627750479635
  0.6771056562926958  0.3228939221541793  0.6057377602966909
  0.2085629358321626  0.7914370981150753  0.6783638975267081
 
  0.00000000E+00  0.00000000E+00  0.00000000E+00
  0.00000000E+00  0.00000000E+00  0.00000000E+00
  0.00000000E+00  0.00000000E+00  0.00000000E+00
  0.00000000E+00  0.00000000E+00  0.00000000E+00
  0.00000000E+00  0.00000000E+00  0.00000000E+00
  0.00000000E+00  0.00000000E+00  0.00000000E+00
  0.00000000E+00  0.00000000E+00  0.00000000E+00
  0.00000000E+00  0.00000000E+00  0.00000000E+00
  0.00000000E+00  0.00000000E+00  0.00000000E+00
  0.00000000E+00  0.00000000E+00  0.00000000E+00
  0.00000000E+00  0.00000000E+00  0.00000000E+00
  0.00000000E+00  0.00000000E+00  0.00000000E+00
  0.00000000E+00  0.00000000E+00  0.00000000E+00
