Zn6 H1 O6
1.0
   3.2289977074000000    0.0000000000000000    0.0000000000000000
  -1.6143826751999999    2.7964611158000001    0.0000000000000000
   0.0000000000000000    0.0000000000000000   41.6376190185999988
Zn O H
6 6 1
direct
0.3674079972307692 0.6325928592307691 0.3670649093846154 T T T
0.7006665372307692 0.2993347662307691 0.3042137483846154 T T T
0.3674075212307693 0.6325925012307692 0.4927672603846154 F F F
0.7006660602307693 0.2993344092307691 0.4299160103846154 F F F
0.3674070142307693 0.6325921442307691 0.6184695223846154 F F F
0.7006655242307692 0.2993340512307691 0.5556183913846154 F F F
0.3673277402307693 0.6326732662307691 0.4146022953846154 T T T
0.7007469432307692 0.2992545092307691 0.3517511353846154 T T T
0.3673272332307693 0.6326729082307692 0.5403046473846154 F F F
0.7007464672307693 0.2992541512307691 0.4774534563846154 F F F
0.3673267262307692 0.6326725502307691 0.6660069093846154 F F F
0.7007459902307692 0.2992537942307691 0.6031557783846154 F F F
0.0915582452307692 0.9084380892307691 0.6786759353846155 F F F
