Zn96 H16 Pt4 O96                        
    1.000000000000000     
    12.9159908295000001    0.0000000000000000    0.0000000000000000
    -6.4575307008999996   11.1858444632000005    0.0000000000000000
     0.0000000000000000    0.0000000000000000   41.8715667725000031
   Zn   O    H    Pt O H
    96    96    16     4 2 2
Selective dynamics
Direct
  0.0833422689999992  0.1666569710000019  0.4138641059999983   F   F   F
  0.0833422689999992  0.4166569710000019  0.4138641059999983   F   F   F
  0.0833422689999992  0.6666569710000019  0.4138641059999983   F   F   F
  0.0833422689999992  0.9166569710000019  0.4138641059999983   F   F   F
  0.3333422540000015  0.1666569710000019  0.4138641059999983   F   F   F
  0.3333422540000015  0.4166569710000019  0.4138641059999983   F   F   F
  0.3333422540000015  0.6666569710000019  0.4138641059999983   F   F   F
  0.3333422540000015  0.9166569710000019  0.4138641059999983   F   F   F
  0.5833422540000015  0.1666569710000019  0.4138641059999983   F   F   F
  0.5833422540000015  0.4166569710000019  0.4138641059999983   F   F   F
  0.5833422540000015  0.6666569710000019  0.4138641059999983   F   F   F
  0.5833422540000015  0.9166569710000019  0.4138641059999983   F   F   F
  0.8333422540000015  0.1666569710000019  0.4138641059999983   F   F   F
  0.8333422540000015  0.4166569710000019  0.4138641059999983   F   F   F
  0.8333422540000015  0.6666569710000019  0.4138641059999983   F   F   F
  0.8333422540000015  0.9166569710000019  0.4138641059999983   F   F   F
  0.1666568959999992  0.0833424400000027  0.3513641059999983   F   F   F
  0.1666568959999992  0.3333424329999986  0.3513641059999983   F   F   F
  0.1666568959999992  0.5833424329999986  0.3513641059999983   F   F   F
  0.1666568959999992  0.8333424329999986  0.3513641059999983   F   F   F
  0.4166569109999969  0.0833424400000027  0.3513641059999983   F   F   F
  0.4166569109999969  0.3333424329999986  0.3513641059999983   F   F   F
  0.4166569109999969  0.5833424329999986  0.3513641059999983   F   F   F
  0.4166569109999969  0.8333424329999986  0.3513641059999983   F   F   F
  0.6666569109999969  0.0833424400000027  0.3513641059999983   F   F   F
  0.6666569109999969  0.3333424329999986  0.3513641059999983   F   F   F
  0.6666569109999969  0.5833424329999986  0.3513641059999983   F   F   F
  0.6666569109999969  0.8333424329999986  0.3513641059999983   F   F   F
  0.9166569109999969  0.0833424400000027  0.3513641059999983   F   F   F
  0.9166569109999969  0.3333424329999986  0.3513641059999983   F   F   F
  0.9166569109999969  0.5833424329999986  0.3513641059999983   F   F   F
  0.9166569109999969  0.8333424329999986  0.3513641059999983   F   F   F
  0.0833421419999993  0.1666568819999981  0.5388641360000008   F   F   F
  0.0833421419999993  0.4166568819999981  0.5388641360000008   F   F   F
  0.0833421419999993  0.6666568520000027  0.5388641360000008   F   F   F
  0.0833421419999993  0.9166568520000027  0.5388641360000008   F   F   F
  0.3333421350000023  0.1666568819999981  0.5388641360000008   F   F   F
  0.3333421350000023  0.4166568819999981  0.5388641360000008   F   F   F
  0.3333421350000023  0.6666568520000027  0.5388641360000008   F   F   F
  0.3333421350000023  0.9166568520000027  0.5388641360000008   F   F   F
  0.5833421350000023  0.1666568819999981  0.5388641360000008   F   F   F
  0.5833421350000023  0.4166568819999981  0.5388641360000008   F   F   F
  0.5833421350000023  0.6666568520000027  0.5388641360000008   F   F   F
  0.5833421350000023  0.9166568520000027  0.5388641360000008   F   F   F
  0.8333421350000023  0.1666568819999981  0.5388641360000008   F   F   F
  0.8333421350000023  0.4166568819999981  0.5388641360000008   F   F   F
  0.8333421350000023  0.6666568520000027  0.5388641360000008   F   F   F
  0.8333421350000023  0.9166568520000027  0.5388641360000008   F   F   F
  0.1666567770000000  0.0833423509999989  0.4763641059999983   F   F   F
  0.1666567770000000  0.3333423440000018  0.4763641059999983   F   F   F
  0.1666567770000000  0.5833423730000007  0.4763641059999983   F   F   F
  0.1666567770000000  0.8333423730000007  0.4763641059999983   F   F   F
  0.4166567919999977  0.0833423509999989  0.4763641059999983   F   F   F
  0.4166567919999977  0.3333423440000018  0.4763641059999983   F   F   F
  0.4166567919999977  0.5833423730000007  0.4763641059999983   F   F   F
  0.4166567919999977  0.8333423730000007  0.4763641059999983   F   F   F
  0.6666567919999977  0.0833423509999989  0.4763641059999983   F   F   F
  0.6666567919999977  0.3333423440000018  0.4763641059999983   F   F   F
  0.6666567919999977  0.5833423730000007  0.4763641059999983   F   F   F
  0.6666567919999977  0.8333423730000007  0.4763641059999983   F   F   F
  0.9166567919999977  0.0833423509999989  0.4763641059999983   F   F   F
  0.9166567919999977  0.3333423440000018  0.4763641059999983   F   F   F
  0.9166567919999977  0.5833423730000007  0.4763641059999983   F   F   F
  0.9166567919999977  0.8333423730000007  0.4763641059999983   F   F   F
  0.0837440270903684  0.1701375243170133  0.6608076375989285   T   T   T
  0.0848004434334086  0.4201050233475030  0.6616630948695246   T   T   T
  0.0834042035764142  0.6608046934683571  0.6603692690140051   T   T   T
  0.0794716616602784  0.9129677658338906  0.6593405109137009   T   T   T
  0.3405338097158506  0.1742204042090734  0.6592951889101286   T   T   T
  0.3552337812545758  0.4336816098889287  0.6732068357553302   T   T   T
  0.3595550649815706  0.6700126518406648  0.6735585800566710   T   T   T
  0.3406491550368500  0.9127303154283268  0.6596949275766590   T   T   T
  0.5924909762875927  0.1706509244066297  0.6604097660744586   T   T   T
  0.5858616860630264  0.4331066913270334  0.6707988136883856   T   T   T
  0.5886149988852765  0.6662304919451643  0.6654391688572616   T   T   T
  0.5845691521549199  0.8954163361006948  0.6735720311115827   T   T   T
  0.8340015481180103  0.1694047067314699  0.6615919770568652   T   T   T
  0.8164769158129914  0.4375325484395063  0.6775707701712932   T   T   T
  0.8212060998086486  0.6680870748321865  0.6708237350540927   T   T   T
  0.8207478988657755  0.8991282422820035  0.6732982566756220   T   T   T
  0.1673489194744704  0.0846425086420695  0.6011291663981098   T   T   T
  0.1724457451012142  0.3381513552350626  0.6045788121361895   T   T   T
  0.1738317450725404  0.5856812467510011  0.6044105302826566   T   T   T
  0.1672912350174016  0.8316479813089970  0.6011297538596310   T   T   T
  0.4202638216704884  0.0844776864091727  0.6011494237436565   T   T   T
  0.4219011689231849  0.3403815370848164  0.6029097214954575   T   T   T
  0.4190875018739959  0.5837438300953366  0.6015374160305100   T   T   T
  0.4217422299135833  0.8301893190626117  0.6033015022887795   T   T   T
  0.6662580487502225  0.0782420425167558  0.6044547881506617   T   T   T
  0.6696618995680410  0.3382109344476874  0.6043166327300824   T   T   T
  0.6682365715086291  0.5839189379670273  0.5998783051082981   T   T   T
  0.6686084147765641  0.8334164436841647  0.6015693182459430   T   T   T
  0.9142473273537703  0.0799819139417721  0.6046037671989666   T   T   T
  0.9150424597516960  0.3372955715591672  0.6053300616985666   T   T   T
  0.9138223936173944  0.5823598465648914  0.6043188270919444   T   T   T
  0.9115010372889856  0.8301818867233237  0.6029249961596790   T   T   T
  0.0833223240000009  0.1666771619999992  0.3361358940000017   F   F   F
  0.0833223240000009  0.4166771769999968  0.3361358940000017   F   F   F
  0.0833223240000009  0.6666771769999968  0.3361358940000017   F   F   F
  0.0833223240000009  0.9166771769999968  0.3361358940000017   F   F   F
  0.3333223160000003  0.1666771619999992  0.3361358940000017   F   F   F
  0.3333223160000003  0.4166771769999968  0.3361358940000017   F   F   F
  0.3333223160000003  0.6666771769999968  0.3361358940000017   F   F   F
  0.3333223160000003  0.9166771769999968  0.3361358940000017   F   F   F
  0.5833223460000028  0.1666771619999992  0.3361358940000017   F   F   F
  0.5833223460000028  0.4166771769999968  0.3361358940000017   F   F   F
  0.5833223460000028  0.6666771769999968  0.3361358940000017   F   F   F
  0.5833223460000028  0.9166771769999968  0.3361358940000017   F   F   F
  0.8333223460000028  0.1666771619999992  0.3361358940000017   F   F   F
  0.8333223460000028  0.4166771769999968  0.3361358940000017   F   F   F
  0.8333223460000028  0.6666771769999968  0.3361358940000017   F   F   F
  0.8333223460000028  0.9166771769999968  0.3361358940000017   F   F   F
  0.1666769979999998  0.0833223759999981  0.3986358940000017   F   F   F
  0.1666769979999998  0.3333223759999981  0.3986358940000017   F   F   F
  0.1666769979999998  0.5833224060000006  0.3986358940000017   F   F   F
  0.1666769979999998  0.8333224060000006  0.3986358940000017   F   F   F
  0.4166769979999998  0.0833223759999981  0.3986358940000017   F   F   F
  0.4166769979999998  0.3333223759999981  0.3986358940000017   F   F   F
  0.4166769979999998  0.5833224060000006  0.3986358940000017   F   F   F
  0.4166769979999998  0.8333224060000006  0.3986358940000017   F   F   F
  0.6666769979999998  0.0833223759999981  0.3986358940000017   F   F   F
  0.6666769979999998  0.3333223759999981  0.3986358940000017   F   F   F
  0.6666769979999998  0.5833224060000006  0.3986358940000017   F   F   F
  0.6666769979999998  0.8333224060000006  0.3986358940000017   F   F   F
  0.9166769979999998  0.0833223759999981  0.3986358940000017   F   F   F
  0.9166769979999998  0.3333223759999981  0.3986358940000017   F   F   F
  0.9166769979999998  0.5833224060000006  0.3986358940000017   F   F   F
  0.9166769979999998  0.8333224060000006  0.3986358940000017   F   F   F
  0.0833221970000011  0.1666770730000025  0.4611358940000017   F   F   F
  0.0833221970000011  0.4166770579999977  0.4611358940000017   F   F   F
  0.0833221970000011  0.6666770579999977  0.4611358940000017   F   F   F
  0.0833221970000011  0.9166770579999977  0.4611358940000017   F   F   F
  0.3333221970000011  0.1666770730000025  0.4611358940000017   F   F   F
  0.3333221970000011  0.4166770579999977  0.4611358940000017   F   F   F
  0.3333221970000011  0.6666770579999977  0.4611358940000017   F   F   F
  0.3333221970000011  0.9166770579999977  0.4611358940000017   F   F   F
  0.5833221669999986  0.1666770730000025  0.4611358940000017   F   F   F
  0.5833221669999986  0.4166770579999977  0.4611358940000017   F   F   F
  0.5833221669999986  0.6666770579999977  0.4611358940000017   F   F   F
  0.5833221669999986  0.9166770579999977  0.4611358940000017   F   F   F
  0.8333221669999986  0.1666770730000025  0.4611358940000017   F   F   F
  0.8333221669999986  0.4166770579999977  0.4611358940000017   F   F   F
  0.8333221669999986  0.6666770579999977  0.4611358940000017   F   F   F
  0.8333221669999986  0.9166770579999977  0.4611358940000017   F   F   F
  0.1666768790000006  0.0833222870000014  0.5236359239999970   F   F   F
  0.1666768790000006  0.3333222870000014  0.5236359239999970   F   F   F
  0.1666768790000006  0.5833222870000014  0.5236359239999970   F   F   F
  0.1666768790000006  0.8333222870000014  0.5236359239999970   F   F   F
  0.4166768790000006  0.0833222870000014  0.5236359239999970   F   F   F
  0.4166768790000006  0.3333222870000014  0.5236359239999970   F   F   F
  0.4166768790000006  0.5833222870000014  0.5236359239999970   F   F   F
  0.4166768790000006  0.8333222870000014  0.5236359239999970   F   F   F
  0.6666768790000006  0.0833222870000014  0.5236359239999970   F   F   F
  0.6666768790000006  0.3333222870000014  0.5236359239999970   F   F   F
  0.6666768790000006  0.5833222870000014  0.5236359239999970   F   F   F
  0.6666768790000006  0.8333222870000014  0.5236359239999970   F   F   F
  0.9166768790000006  0.0833222870000014  0.5236359239999970   F   F   F
  0.9166768790000006  0.3333222870000014  0.5236359239999970   F   F   F
  0.9166768790000006  0.5833222870000014  0.5236359239999970   F   F   F
  0.9166768790000006  0.8333222870000014  0.5236359239999970   F   F   F
  0.0830955286510147  0.1692827464627200  0.5887442284258313   T   T   T
  0.0833921001716220  0.4171146826186387  0.5891978748373035   T   T   T
  0.0842483138891126  0.6637864030236926  0.5881514472600600   T   T   T
  0.0838412326213529  0.9166270118035911  0.5876839350026160   T   T   T
  0.3354123942729359  0.1680840441413096  0.5877133924607492   T   T   T
  0.3326783956460133  0.4151305051292979  0.5862262192578243   T   T   T
  0.3340248500105503  0.6670568337601779  0.5861865506693320   T   T   T
  0.3357389707565659  0.9160603852501268  0.5877307966933927   T   T   T
  0.5880981515208248  0.1677914416251554  0.5881603466292802   T   T   T
  0.5843409191202795  0.4144408083483313  0.5857877918421934   T   T   T
  0.5844438170129678  0.6681093261868085  0.5852859407973767   T   T   T
  0.5848775056480235  0.9180284664757821  0.5861862830471125   T   T   T
  0.8348304616870692  0.1686940300819799  0.5892378308697133   T   T   T
  0.8342404312801079  0.4177211967386754  0.5870883141033545   T   T   T
  0.8377768657364300  0.6677952429515983  0.5857778278538603   T   T   T
  0.8372079900350542  0.9197678741660411  0.5862006626750045   T   T   T
  0.1693659961705762  0.0841132257239892  0.6531735863150132   T   T   T
  0.1778070618241259  0.3402950091035777  0.6555861106033731   T   T   T
  0.1836924422717914  0.5914301644585791  0.6556126933258355   T   T   T
  0.1705332520562806  0.8340139806525997  0.6530321276356119   T   T   T
  0.4192522634286533  0.0828667017850933  0.6530878268443274   T   T   T
  0.4211364270760782  0.3382324240387007  0.6504571228898470   T   T   T
  0.4173632741992179  0.5818853298394799  0.6472611879738324   T   T   T
  0.4231559349506924  0.8312607601427615  0.6508617534814505   T   T   T
  0.6626092090238274  0.0709691188893089  0.6556293967754385   T   T   T
  0.6634346668823667  0.3361156847727145  0.6521286501106331   T   T   T
  0.6693770368908218  0.5848848024960418  0.6452393684844182   T   T   T
  0.6726520937713545  0.8374020061332317  0.6472937386613467   T   T   T
  0.9135513023761845  0.0761102383770123  0.6555999307201077   T   T   T
  0.9126240077793284  0.3416058509993078  0.6565935189916559   T   T   T
  0.9180263225127447  0.5901828540773479  0.6520798511674784   T   T   T
  0.9155253579703100  0.8326861590765020  0.6504297801228205   T   T   T
  0.0833225029999980  0.1666775050000027  0.3114693160000002   F   F   F
  0.0833225029999980  0.4166775050000027  0.3114693160000002   F   F   F
  0.0833225029999980  0.6666774750000002  0.3114693160000002   F   F   F
  0.0833225029999980  0.9166774750000002  0.3114693160000002   F   F   F
  0.3333224949999973  0.1666775050000027  0.3114693160000002   F   F   F
  0.3333224949999973  0.4166775050000027  0.3114693160000002   F   F   F
  0.3333224949999973  0.6666774750000002  0.3114693160000002   F   F   F
  0.3333224949999973  0.9166774750000002  0.3114693160000002   F   F   F
  0.5833225249999998  0.1666775050000027  0.3114693160000002   F   F   F
  0.5833225249999998  0.4166775050000027  0.3114693160000002   F   F   F
  0.5833225249999998  0.6666774750000002  0.3114693160000002   F   F   F
  0.5833225249999998  0.9166774750000002  0.3114693160000002   F   F   F
  0.8333225249999998  0.1666775050000027  0.3114693160000002   F   F   F
  0.8333225249999998  0.4166775050000027  0.3114693160000002   F   F   F
  0.8333225249999998  0.6666774750000002  0.3114693160000002   F   F   F
  0.8333225249999998  0.9166774750000002  0.3114693160000002   F   F   F
  0.5133811453775152  0.5239224837264729  0.7157227723093769   T   T   T
  0.7269329858493947  0.5270057827989447  0.7172984274576706   T   T   T
  0.5203613074365805  0.7354769557908156  0.7165737736039688   T   T   T
  0.7306983514660743  0.7407993530963495  0.7157077239978022   T   T   T
  0.5133811453775152  0.5239224837264729  0.7657227723093769   T   T   T
  0.7307000000000000  0.7408000000000000  0.7657227723093769   T   T   T
  0.5133811453775152  0.5239224837264729  0.7890195871329300   T   T   T
  0.7307000000000000  0.7408000000000000  0.7890195871329300   T   T   T
  
